LAMMPS data file for condensate dense phase simulation

5300 atoms
44 atom types
4970 bonds
2 bond types

0.0 106.89119293174846 xlo xhi
0.0 106.89119293174846 ylo yhi
0.0 106.89119293174846 zlo zhi

Masses

1 131.2
2 57.05
3 128.2
4 101.1
5 156.2
6 71.08
7 115.1
8 129.1
9 163.2
10 99.06999999999999
11 113.2
12 128.1
13 186.2
14 147.2
15 87.08
16 137.1
17 114.1
18 97.12
19 103.1
20 113.2
21 131.2
22 57.05
23 128.2
24 101.1
25 156.2
26 71.08
27 115.1
28 129.1
29 163.2
30 99.06999999999999
31 113.2
32 128.1
33 186.2
34 147.2
35 87.08
36 137.1
37 114.1
38 97.12
39 103.1
40 113.2
41 329.2
42 305.2
43 345.2
44 306.2

Atoms

1 1 5 0.75 105.32022413412847 31.48387415923352 61.246158055699446 0 0 0
2 1 5 0.75 106.03645935260468 33.58209420447958 64.34463828857845 0 0 0
3 1 5 0.75 105.7963780876585 34.954605856256684 67.89071679193367 0 0 0
4 1 5 0.75 102.11559910497769 34.033270850634636 68.23583689866561 0 0 0
5 1 5 0.75 101.01608521741093 32.762904914629324 64.81628435488372 0 0 0
6 1 5 0.75 101.33406424879588 36.19872141096973 63.200687146705086 0 0 0
7 1 5 0.75 102.91094299871737 36.38867385900164 66.66384632230368 0 0 0
8 1 5 0.75 103.49173624764686 34.736278077197696 70.04738993548122 0 0 0
9 1 5 0.75 106.80422802094822 35.616374658663574 68.38338024226941 0 0 0
10 1 5 0.75 105.75612574120424 37.9521546830398 65.56172943309396 0 0 0
11 1 5 0.75 0.456480081283388 38.84421910805361 62.21698753824424 1 0 0
12 1 5 0.75 0.5191003755669925 36.435563901097005 59.265621957238615 1 0 0
13 1 5 0.75 104.57017008080342 38.41917877248212 60.851519841796986 0 0 0
14 1 5 0.75 105.06627114881071 40.77577135810584 57.89915551541291 0 0 0
15 1 5 0.75 104.7225412437246 36.9845804142614 57.74160876152257 0 0 0
16 1 5 0.75 1.4362683921037132 36.410351569708055 58.83289811360844 1 0 0
17 1 5 0.75 2.2373123963052137 38.947272915187426 56.10554434297582 1 0 0
18 1 5 0.75 0.8810737881763515 35.66755482694179 54.71984376223874 1 0 0
19 1 5 0.75 0.3180688261501672 37.53429856323351 51.44655898456517 1 0 0
20 1 5 0.75 0.2987971014504893 35.23070673420461 48.41189371705075 1 0 0
21 1 5 0.75 0.15046687882326637 34.50655827240459 52.14950085937163 1 0 0
22 1 5 0.75 0.8008260507239271 35.54331273946069 55.75758527115635 1 0 0
23 1 5 0.75 104.16744357652826 34.794892323839996 54.51930618738892 0 0 0
24 1 5 0.75 101.62472443144178 32.82446066597426 56.56089342061976 0 0 0
25 1 5 0.75 98.0521585900322 33.37544532037416 55.3570291344939 0 0 0
26 1 5 0.75 99.36288943338734 35.968027349417866 57.82210582274463 0 0 0
27 1 5 0.75 98.51904091902885 32.27128163509723 57.4505001063368 0 0 0
28 1 5 0.75 98.31879267961695 30.713684062701084 60.9217953177929 0 0 0
29 1 5 0.75 98.8426106507419 31.69011717529603 57.27648420490354 0 0 0
30 1 5 0.75 101.83363241405941 34.04012127151399 57.058838715357176 0 0 0
31 1 5 0.75 102.54762816608306 33.46108884283715 53.36140291298916 0 0 0
32 1 5 0.75 100.25569593313867 30.70267262779929 54.64759365475601 0 0 0
33 1 5 0.75 101.13581984979722 27.022929470437486 54.19929443863512 0 0 0
34 1 5 0.75 97.46765389334695 26.75544003726739 55.193833487180534 0 0 0
35 1 5 0.75 98.88003301087187 23.510437122556766 56.60494698789516 0 0 0
36 1 5 0.75 100.94144015018247 21.846883822685175 59.34343033173452 0 0 0
37 1 5 0.75 103.02111234507784 21.32755021542393 56.19361189789613 0 0 0
38 1 5 0.75 100.34288725659403 23.45897494784255 54.52022043578988 0 0 0
39 1 5 0.75 101.78581489079264 20.476639633782046 56.40163902743121 0 0 0
40 1 5 0.75 103.94419621771547 19.394307922768697 59.348849253208414 0 0 0
41 1 5 0.75 106.69800798547476 16.881679574614807 58.56188068216896 0 0 0
42 1 5 0.75 106.71723625548903 18.468082838576834 55.09791547482018 0 0 0
43 1 5 0.75 105.44093146068185 17.14945386814233 51.75899892763259 0 0 0
44 1 5 0.75 104.80901564260817 13.654534485988766 50.379752426416935 0 0 0
45 1 5 0.75 104.23160143813979 9.973303868406047 49.58525008114053 0 0 0
46 1 5 0.75 101.89034590230666 7.1441339165887365 50.60034608628723 0 0 0
47 1 5 0.75 104.15304561397811 7.373362291604918 47.54359219254809 0 0 0
48 1 5 0.75 106.3968723594563 10.318134234661265 48.4434031391724 0 0 0
49 1 5 0.75 104.36297352902882 9.880067966690339 51.635182187360385 0 0 0
50 1 5 0.75 0.7445475161160573 8.121275916952246 50.791531062337256 1 0 0
51 2 5 0.75 81.63984166690614 26.277379566038242 37.19731553482843 0 0 0
52 2 5 0.75 80.80337468021924 27.383212969105834 40.746055517532554 0 0 0
53 2 5 0.75 79.89135039926954 29.95599563690068 38.08802973600736 0 0 0
54 2 5 0.75 76.60216814827442 31.717201806702302 38.85973754806535 0 0 0
55 2 5 0.75 75.76152890699106 28.79292839951277 41.15278153063931 0 0 0
56 2 5 0.75 72.97379013046313 30.852935357961258 42.73423144922238 0 0 0
57 2 5 0.75 69.89711342778926 31.86996520350488 40.73028265733737 0 0 0
58 2 5 0.75 68.67411919616997 29.908978805327834 37.70127003676436 0 0 0
59 2 5 0.75 66.5396970727937 32.47954387612242 35.87027647695788 0 0 0
60 2 5 0.75 64.05920151231567 30.129298459014468 37.555384263959006 0 0 0
61 2 5 0.75 65.45762175959807 32.55673429531701 40.137646077297234 0 0 0
62 2 5 0.75 68.25422133022738 32.297251487773686 42.712097380807435 0 0 0
63 2 5 0.75 70.48877158536567 31.99557059427185 45.783232968136225 0 0 0
64 2 5 0.75 68.12081396920046 33.073098503794526 42.999744090442476 0 0 0
65 2 5 0.75 69.00918952968077 31.219260347621425 39.79191414572003 0 0 0
66 2 5 0.75 65.8119338063676 29.83796096132197 38.24735341685567 0 0 0
67 2 5 0.75 63.97682574837375 29.32124480415256 41.54606268388817 0 0 0
68 2 5 0.75 61.50301073648527 32.216495204164445 41.66380990545291 0 0 0
69 2 5 0.75 60.86299204548267 35.70597443161294 43.05305819009205 0 0 0
70 2 5 0.75 62.44949294827636 33.450130816569086 40.42431619630477 0 0 0
71 2 5 0.75 64.50210932024481 36.47885780272541 39.361452671267095 0 0 0
72 2 5 0.75 65.6143013398511 38.76723582800221 42.19737490661741 0 0 0
73 2 5 0.75 65.30730234429335 37.69044630224087 45.83912941975215 0 0 0
74 2 5 0.75 62.89906923901827 39.92190021509102 47.77229437533222 0 0 0
75 2 5 0.75 66.41994869021458 41.111289872020215 48.61185386347668 0 0 0
76 2 5 0.75 65.50845841586742 37.65653671592436 47.28899101714065 0 0 0
77 2 5 0.75 65.43787906737948 40.23078661146605 44.48108146894103 0 0 0
78 2 5 0.75 68.64969647766353 38.336459557010414 43.69887054230184 0 0 0
79 2 5 0.75 69.94886657831435 37.7884771268061 40.15938296558084 0 0 0
80 2 5 0.75 68.13585709952083 37.85280764562092 36.80901608803535 0 0 0
81 2 5 0.75 65.9851352353339 39.834841896487646 39.25074410141019 0 0 0
82 2 5 0.75 64.49307078920498 38.85566779411717 42.61690835257872 0 0 0
83 2 5 0.75 64.63328811160422 35.438194621816656 44.29539464060895 0 0 0
84 2 5 0.75 65.67125117881022 32.03495915894642 45.65801016062138 0 0 0
85 2 5 0.75 62.1079572681389 33.254376165853124 45.08176484008564 0 0 0
86 2 5 0.75 58.643018331929774 34.52706277379123 46.025463396997225 0 0 0
87 2 5 0.75 62.162727515254495 34.468700135469746 47.48297534112248 0 0 0
88 2 5 0.75 58.49533928765651 33.773625340845825 48.24667332982892 0 0 0
89 2 5 0.75 59.08800322042303 35.17443397672225 51.73989313803621 0 0 0
90 2 5 0.75 59.466244798355554 38.56981472163032 50.05335143803867 0 0 0
91 2 5 0.75 58.55143244256926 42.22900451449732 49.51525440823947 0 0 0
92 2 5 0.75 62.33658053577242 42.487724692577586 49.864278450354895 0 0 0
93 2 5 0.75 58.96041763147697 40.8495992737252 49.205363314871555 0 0 0
94 2 5 0.75 57.06354480387692 41.92774717507333 46.08197243655818 0 0 0
95 2 5 0.75 55.855660939217714 44.64303134479086 43.697785269581296 0 0 0
96 2 5 0.75 53.698969405148375 42.992899447126604 41.0253619597023 0 0 0
97 2 5 0.75 52.084793538211244 39.56031269721693 40.667752570924144 0 0 0
98 2 5 0.75 53.876679587042624 42.905002111674925 40.323809103452966 0 0 0
99 2 5 0.75 55.58694400749025 45.52914148122308 38.154710631428614 0 0 0
100 2 5 0.75 54.2405742759429 42.69134049149392 40.3111600485644 0 0 0
101 3 5 0.75 27.942782371007677 81.64396004806684 42.79497875075009 0 0 0
102 3 5 0.75 27.632274014004608 77.86974100145001 43.213255152649566 0 0 0
103 3 5 0.75 30.566978815296856 75.44221568939749 43.10967625220874 0 0 0
104 3 5 0.75 30.091126338799235 72.27225865552168 45.16905402813825 0 0 0
105 3 5 0.75 33.18986658228004 74.46078260844888 44.81653195663575 0 0 0
106 3 5 0.75 35.262823519205575 77.02472178038586 46.72576359796673 0 0 0
107 3 5 0.75 37.791665353994134 76.13784143179299 49.43399221126788 0 0 0
108 3 5 0.75 36.258364402636985 77.7956733440162 46.36533101403844 0 0 0
109 3 5 0.75 34.09018920649199 77.99035174436568 49.49218512628272 0 0 0
110 3 5 0.75 35.26495800630163 78.09153592534398 45.8692332871723 0 0 0
111 3 5 0.75 36.41928650394978 75.2755178952509 43.57714511833845 0 0 0
112 3 5 0.75 39.12518707860144 73.22926581094553 45.31123118528431 0 0 0
113 3 5 0.75 40.02141203464226 73.2628042416248 41.60829235216308 0 0 0
114 3 5 0.75 39.83755290797155 76.44409186267386 43.69676186204345 0 0 0
115 3 5 0.75 36.70471751690741 74.804437511614 45.115555723584464 0 0 0
116 3 5 0.75 38.21147384297163 73.16567945626414 48.207522316206614 0 0 0
117 3 5 0.75 34.75082864075633 72.54085553673464 46.741360710527346 0 0 0
118 3 5 0.75 37.35358275047377 69.80162244445577 46.25312602258174 0 0 0
119 3 5 0.75 40.14118656791894 68.09655444033613 48.212235018603295 0 0 0
120 3 5 0.75 41.43650777251228 66.66550283632415 51.49709944253095 0 0 0
121 3 5 0.75 40.26921676302527 67.12178726494477 55.09506222991066 0 0 0
122 3 5 0.75 40.508983200426094 70.44804030219552 53.252603875516655 0 0 0
123 3 5 0.75 43.657229612626736 68.62878514934674 54.39056486645568 0 0 0
124 3 5 0.75 44.12041038568496 72.06440567105679 55.97109490485228 0 0 0
125 3 5 0.75 41.58460822553673 70.32268383730741 58.21880762191117 0 0 0
126 3 5 0.75 45.164140591027845 69.048646280532 57.9361835813071 0 0 0
127 3 5 0.75 45.58237622977869 65.30333101797737 58.49635546078166 0 0 0
128 3 5 0.75 46.95200579551115 68.16399373946271 56.38523640999944 0 0 0
129 3 5 0.75 45.07850160769745 68.48490059389782 53.08325202950624 0 0 0
130 3 5 0.75 48.74844911268641 68.16192935981054 54.05447542943926 0 0 0
131 3 5 0.75 46.67440903949318 70.16890700040912 51.56720814888295 0 0 0
132 3 5 0.75 48.569215846093385 66.86350011431179 51.57682495718255 0 0 0
133 3 5 0.75 46.540529289603036 64.22700143267154 53.43408249377367 0 0 0
134 3 5 0.75 44.146244826424805 67.13945925308553 53.982800411918056 0 0 0
135 3 5 0.75 42.8224707701187 70.59795356673648 54.87864600703755 0 0 0
136 3 5 0.75 44.53432899885131 73.46299014799509 53.04092818518065 0 0 0
137 3 5 0.75 45.285662235675254 75.93279446431477 50.238845922588716 0 0 0
138 3 5 0.75 42.92773361854702 78.37074691287151 51.97454765246743 0 0 0
139 3 5 0.75 39.777986434899155 79.76701835967559 53.60108345777328 0 0 0
140 3 5 0.75 39.86082266846219 78.71556908769664 57.26218883550607 0 0 0
141 3 5 0.75 42.12823180967417 75.95390638584544 55.94000318002786 0 0 0
142 3 5 0.75 45.00268529910103 78.03124292607444 54.54777832902457 0 0 0
143 3 5 0.75 44.487687675941906 75.01737156927503 52.27457422626465 0 0 0
144 3 5 0.75 42.3782443451913 72.5803647103776 50.24298706248392 0 0 0
145 3 5 0.75 45.181374345618494 71.7324722367179 52.6801248414813 0 0 0
146 3 5 0.75 48.5210640124822 73.54893287038236 52.429039805306125 0 0 0
147 3 5 0.75 45.673567054986655 74.40227997630807 50.045836122474576 0 0 0
148 3 5 0.75 49.405624417117146 74.07787469969894 49.351135422693915 0 0 0
149 3 5 0.75 47.82043430662901 73.11724787198267 52.67986917766477 0 0 0
150 3 5 0.75 44.65920733908334 71.56963718424595 51.22122418354692 0 0 0
151 4 5 0.75 24.688977873954595 81.6362903741013 6.244082291789424 0 0 0
152 4 5 0.75 27.833728922484312 82.75577267423401 4.407400440607559 0 0 0
153 4 5 0.75 28.20728476084068 85.97505239214854 6.410596420399363 0 0 0
154 4 5 0.75 26.524522995739854 83.51686362332057 8.785827107874336 0 0 0
155 4 5 0.75 26.580753819791685 86.73196790356414 10.829363885518907 0 0 0
156 4 5 0.75 27.55233732175812 90.16467493754574 12.166767309157352 0 0 0
157 4 5 0.75 30.841783630600535 88.30901570171918 11.664600223682207 0 0 0
158 4 5 0.75 33.41222866216478 88.0991471719263 8.860163107270205 0 0 0
159 4 5 0.75 34.87117382989534 85.43056242626281 6.565335346245913 0 0 0
160 4 5 0.75 33.48573202092676 82.03629120936782 5.52823655629383 0 0 0
161 4 5 0.75 34.55675407236297 78.4196603502132 6.06581724228242 0 0 0
162 4 5 0.75 33.86348940877806 81.98132963631363 4.903923958596946 0 0 0
163 4 5 0.75 36.08357895465174 79.65603340170898 2.8593458041514292 0 0 0
164 4 5 0.75 38.2578772938751 76.92527671506804 4.386269066930652 0 0 0
165 4 5 0.75 40.84753999482114 74.75105874085189 6.1419806878764955 0 0 0
166 4 5 0.75 42.96372321061542 77.50425874568968 7.709704621020256 0 0 0
167 4 5 0.75 42.357575517173146 75.29838530720086 10.75647460694044 0 0 0
168 4 5 0.75 45.3621200577217 75.42105990720218 8.416867151324345 0 0 0
169 4 5 0.75 48.414729666031675 77.42501923954809 9.503983324305564 0 0 0
170 4 5 0.75 50.47766878305527 80.49864382250011 10.405767180075275 0 0 0
171 4 5 0.75 52.07727037110682 83.0116884670217 12.781052715362426 0 0 0
172 4 5 0.75 55.26132338900101 81.45801368276491 11.379624499575563 0 0 0
173 4 5 0.75 53.475335256959696 78.54724013157461 9.690321765931127 0 0 0
174 4 5 0.75 54.29887825382966 81.32849538810581 12.160644848105598 0 0 0
175 4 5 0.75 51.22843348937112 79.08708582073392 11.906573795636216 0 0 0
176 4 5 0.75 52.966131234080514 81.94552702672543 13.730256997270123 0 0 0
177 4 5 0.75 49.344704990632735 82.30357058069444 12.601905643865976 0 0 0
178 4 5 0.75 46.484095141050645 81.75569354334031 15.058090091421578 0 0 0
179 4 5 0.75 46.231006704170184 82.95761232768295 11.451507570674034 0 0 0
180 4 5 0.75 44.00531796785192 85.33775924529466 9.477346913683453 0 0 0
181 4 5 0.75 45.5786808992389 88.80599130528381 9.586870720231662 0 0 0
182 4 5 0.75 49.04216009215944 87.23338739159459 9.80442257808588 0 0 0
183 4 5 0.75 52.73459858084456 87.96184417591456 10.397169337381044 0 0 0
184 4 5 0.75 51.80416660425852 84.99096917962868 8.200740851545563 0 0 0
185 4 5 0.75 52.96671910657988 85.93392008665664 11.70436972262787 0 0 0
186 4 5 0.75 49.827542247024574 83.95122750214168 10.849619022281928 0 0 0
187 4 5 0.75 49.53142478375899 82.5123422122545 7.334220955135699 0 0 0
188 4 5 0.75 52.03238829681949 85.15917796462229 8.45473066340587 0 0 0
189 4 5 0.75 53.38862655733006 87.02175293145977 5.4203390812863805 0 0 0
190 4 5 0.75 49.613489058406174 87.47399496267914 5.175565697485612 0 0 0
191 4 5 0.75 50.08044344679623 84.81840277785166 7.867383623543471 0 0 0
192 4 5 0.75 52.396669479736694 81.89083411935141 7.105452711914393 0 0 0
193 4 5 0.75 54.92287734744385 82.97783409587657 4.4686355282308625 0 0 0
194 4 5 0.75 56.51058246569328 86.07242918723284 6.023876242087792 0 0 0
195 4 5 0.75 59.2510726239008 83.85193108554517 7.464432340672364 0 0 0
196 4 5 0.75 61.58817349208385 83.08832640834842 4.553939696994791 0 0 0
197 4 5 0.75 60.86705799109253 82.70389169432123 8.275270424688967 0 0 0
198 4 5 0.75 61.376891787204485 84.13609028757871 11.768832602440119 0 0 0
199 4 5 0.75 61.17441130600133 84.20243339699888 7.964795241087815 0 0 0
200 4 5 0.75 62.74558571607305 85.33986167351213 11.244089050572395 0 0 0
201 5 5 0.75 25.506505893524082 25.64066042186716 85.59733635934096 0 0 0
202 5 5 0.75 27.102203512094786 23.852959306962422 82.63524692216048 0 0 0
203 5 5 0.75 27.274740254556086 20.294713190401218 81.28424150156515 0 0 0
204 5 5 0.75 25.70374982909553 23.426352260258916 79.7872692843039 0 0 0
205 5 5 0.75 28.25789107952885 23.43654814933758 76.96019331845496 0 0 0
206 5 5 0.75 30.18267251019163 26.513142470208287 75.80007098483584 0 0 0
207 5 5 0.75 33.962660699809675 26.983113539594033 75.71690560568985 0 0 0
208 5 5 0.75 37.04553692084839 27.338014404915018 73.50647135388581 0 0 0
209 5 5 0.75 35.24018042433739 24.01044464689231 73.93550215231201 0 0 0
210 5 5 0.75 32.74237258937525 26.596671443510818 75.19585407778924 0 0 0
211 5 5 0.75 35.86818176182621 26.40226304245313 77.3655596778695 0 0 0
212 5 5 0.75 38.861504702742394 26.1946495605185 79.71354060059946 0 0 0
213 5 5 0.75 39.381980559930255 28.22820371854084 82.89314157689736 0 0 0
214 5 5 0.75 39.97592336757914 29.930094017102814 79.53652105129385 0 0 0
215 5 5 0.75 43.52829762098588 30.65503004636409 78.36553645822192 0 0 0
216 5 5 0.75 42.930073786637955 31.85341282670197 74.79873018989059 0 0 0
217 5 5 0.75 45.41971957178539 34.6886336605799 74.27025437432081 0 0 0
218 5 5 0.75 46.14138253599126 32.81585976496959 71.03173302932181 0 0 0
219 5 5 0.75 48.13981577859672 32.97926076802857 74.27143435614946 0 0 0
220 5 5 0.75 46.8012249359225 34.360564178630895 70.98262371341444 0 0 0
221 5 5 0.75 47.01532711095833 31.70024274650792 73.70162171569986 0 0 0
222 5 5 0.75 44.92853912284983 29.83522900413029 76.28679862133488 0 0 0
223 5 5 0.75 41.233206262393495 29.976708704763002 75.3699570075648 0 0 0
224 5 5 0.75 42.74218167998815 26.71614194455536 76.6379465940063 0 0 0
225 5 5 0.75 42.97390357952978 30.066192414292836 74.83806692817178 0 0 0
226 5 5 0.75 46.469252262618184 28.55012643411763 74.85154013816675 0 0 0
227 5 5 0.75 47.748089755596375 30.630189226702186 77.77626464578428 0 0 0
228 5 5 0.75 51.21391420313162 31.953440948863815 76.90841340354095 0 0 0
229 5 5 0.75 50.303455142783676 29.434826625420897 79.61834812400535 0 0 0
230 5 5 0.75 46.508977596435834 29.253344293055658 79.3266216882795 0 0 0
231 5 5 0.75 47.2759252375017 27.889662843556078 75.85268095473867 0 0 0
232 5 5 0.75 50.741849404720604 26.86789397861521 77.06076127231918 0 0 0
233 5 5 0.75 53.96711194162924 25.446159335464095 78.50729235476354 0 0 0
234 5 5 0.75 51.643185015229434 28.13092806684636 79.88840802687287 0 0 0
235 5 5 0.75 49.45355479407214 30.795706133149686 78.26958828646217 0 0 0
236 5 5 0.75 47.24022264536385 28.920898168760285 80.73988298470293 0 0 0
237 5 5 0.75 48.38097578025356 32.088092674218956 82.52416470288303 0 0 0
238 5 5 0.75 48.95546943556447 30.36723220693072 79.17383691412384 0 0 0
239 5 5 0.75 46.268751944602144 32.39466102806463 77.38856900733991 0 0 0
240 5 5 0.75 49.1127415088396 34.63314413419527 78.57895413076686 0 0 0
241 5 5 0.75 47.38041497368226 37.967393781001995 77.9481419016852 0 0 0
242 5 5 0.75 50.720533158628015 38.337337020382016 79.74337239112985 0 0 0
243 5 5 0.75 49.102560232378735 36.659374020629926 76.72961994917524 0 0 0
244 5 5 0.75 50.64110461921134 38.87575426083127 79.41972028198644 0 0 0
245 5 5 0.75 52.888432104721765 40.687821014160484 76.9333507892625 0 0 0
246 5 5 0.75 51.900235480364685 41.457331833642456 80.53160321652625 0 0 0
247 5 5 0.75 53.69903576050051 44.728119258026666 79.76847336081794 0 0 0
248 5 5 0.75 54.6583033804226 47.23727808351396 82.47032968968671 0 0 0
249 5 5 0.75 52.11507800904481 49.7028559272859 83.87355119988429 0 0 0
250 5 5 0.75 55.73481347128104 50.7398502671581 83.29195174793952 0 0 0
251 6 5 0.75 91.09325575149688 48.915954913376055 90.47070760100479 0 0 0
252 6 5 0.75 87.69739074168609 50.03978658267372 91.78265394679276 0 0 0
253 6 5 0.75 90.77561870419063 50.516785612247105 89.58877962572485 0 0 0
254 6 5 0.75 93.53718160757906 49.935110838866144 87.02918497253441 0 0 0
255 6 5 0.75 94.39969134711382 51.37977340027019 83.6108334644409 0 0 0
256 6 5 0.75 98.18829145974006 51.51282322517777 83.99149989414086 0 0 0
257 6 5 0.75 98.96039725505693 48.15742446072808 82.36016554080688 0 0 0
258 6 5 0.75 96.34513780878308 47.58562797866398 79.64915709158093 0 0 0
259 6 5 0.75 92.85727785678202 47.70948105076173 78.12089226774995 0 0 0
260 6 5 0.75 93.751070190493 44.47658856380482 76.31378368441108 0 0 0
261 6 5 0.75 97.03468694725116 43.01984739794584 75.04419076917061 0 0 0
262 6 5 0.75 93.44569058692957 42.78734270569548 73.78675421264779 0 0 0
263 6 5 0.75 92.69723717071894 42.36151525824012 77.4981674837288 0 0 0
264 6 5 0.75 91.67521120564507 40.807798143399935 74.17288162326996 0 0 0
265 6 5 0.75 93.80321894878305 43.16860019295508 72.07185884187015 0 0 0
266 6 5 0.75 96.18355190283147 45.62171330566069 70.38889981558847 0 0 0
267 6 5 0.75 95.92583518289138 42.51292280409059 68.20141182485324 0 0 0
268 6 5 0.75 92.43435180270288 43.91578454187167 67.60339614735197 0 0 0
269 6 5 0.75 94.83546364927277 41.00116252731196 68.10910398049839 0 0 0
270 6 5 0.75 94.98733818772915 39.89136975863166 71.75072369364165 0 0 0
271 6 5 0.75 92.62730801751135 37.66719865242867 73.75057880989219 0 0 0
272 6 5 0.75 90.78879904723622 34.42455181798287 74.53875789695078 0 0 0
273 6 5 0.75 88.96123863600154 37.2401771610399 76.34108330342507 0 0 0
274 6 5 0.75 88.77796182685996 34.31254833030135 73.9097258552782 0 0 0
275 6 5 0.75 89.406641128458 32.16100709266055 76.99059142171781 0 0 0
276 6 5 0.75 91.5919794694079 29.04051236241884 77.04452632793001 0 0 0
277 6 5 0.75 95.15537607928522 29.965908588597706 76.063737652787 0 0 0
278 6 5 0.75 93.53496273556696 32.181612528743074 78.70589901143339 0 0 0
279 6 5 0.75 93.25670835589186 30.765039663543046 82.23180255772768 0 0 0
280 6 5 0.75 95.00205381182778 27.378672184916713 82.18297081450875 0 0 0
281 6 5 0.75 95.51425954937102 30.009232160773585 84.89108814871857 0 0 0
282 6 5 0.75 96.08118723053973 33.775194349124234 85.00164039988464 0 0 0
283 6 5 0.75 97.38141660820554 36.923797034313516 83.29523930510251 0 0 0
284 6 5 0.75 97.21437569428699 39.68345427701721 85.91678259787307 0 0 0
285 6 5 0.75 99.87484226916247 37.18648598991303 87.01367228109847 0 0 0
286 6 5 0.75 101.15289778251055 33.62788274413569 87.48166484935521 0 0 0
287 6 5 0.75 99.64469624666401 31.343176428857568 90.13148468855154 0 0 0
288 6 5 0.75 98.5584235254656 34.51203133522517 91.94655222381577 0 0 0
289 6 5 0.75 96.36806751024817 31.407510736347785 92.2300877202652 0 0 0
290 6 5 0.75 92.57531434913564 31.08332560562414 92.39141800226044 0 0 0
291 6 5 0.75 91.1061636891224 27.631776413211657 93.05812971697632 0 0 0
292 6 5 0.75 90.0557738695717 30.983044320299157 91.58104317858069 0 0 0
293 6 5 0.75 91.7960071691043 33.278212907516306 89.08707260548854 0 0 0
294 6 5 0.75 90.65598973634846 29.64921892535961 88.87059412969185 0 0 0
295 6 5 0.75 93.90919817496327 30.191592505387042 86.96309163831377 0 0 0
296 6 5 0.75 90.28128401477774 29.027860467848328 86.95493129938835 0 0 0
297 6 5 0.75 93.72581990338965 27.79675748584397 85.8892587606765 0 0 0
298 6 5 0.75 91.5198856736014 30.54600718006727 87.33548844252569 0 0 0
299 6 5 0.75 94.17963872050342 28.26581053937108 88.83299203492645 0 0 0
300 6 5 0.75 97.1608767133074 30.63738059673973 88.89604354763263 0 0 0
301 7 5 0.75 54.8305419285903 85.12287621088257 86.18201944213962 0 0 0
302 7 5 0.75 54.10056795991477 83.84233020344891 89.69534264502059 0 0 0
303 7 5 0.75 51.14444408147613 83.39103567917283 92.05622486734413 0 0 0
304 7 5 0.75 47.38685682620381 83.33574609571953 92.68358527490632 0 0 0
305 7 5 0.75 44.13439966960497 84.77400305268682 94.0507134218714 0 0 0
306 7 5 0.75 44.541820323193456 83.30599834657914 97.54285754745888 0 0 0
307 7 5 0.75 40.778979561257934 83.67025089087181 98.01661854658485 0 0 0
308 7 5 0.75 37.12274101968828 82.60389162992206 97.91222671870882 0 0 0
309 7 5 0.75 33.894840016375966 80.79247993160712 97.00915265085882 0 0 0
310 7 5 0.75 30.90969266375018 81.31400795998923 99.31848238017925 0 0 0
311 7 5 0.75 28.665956248748632 79.40324892247754 96.9037884450058 0 0 0
312 7 5 0.75 30.11054285130251 80.4961634393781 100.25562486799393 0 0 0
313 7 5 0.75 32.24070244059706 83.65379697413157 100.16690855417988 0 0 0
314 7 5 0.75 32.71174744146062 87.08437733976037 98.57777830082631 0 0 0
315 7 5 0.75 29.152816083604993 88.35445404079555 98.09093873427541 0 0 0
316 7 5 0.75 25.651509539308037 89.84597819629725 98.2706834877961 0 0 0
317 7 5 0.75 22.895516886372405 87.74765136750715 96.68397966649091 0 0 0
318 7 5 0.75 21.414015398257938 85.97089068825139 93.65670782052709 0 0 0
319 7 5 0.75 23.730531781079577 88.8189255278921 92.6376153809949 0 0 0
320 7 5 0.75 20.206052077531723 88.3632243677916 94.01110701619415 0 0 0
321 7 5 0.75 22.581327131836666 88.04113746922802 96.9725979322988 0 0 0
322 7 5 0.75 22.434443346715067 91.58041965216414 95.56974128131151 0 0 0
323 7 5 0.75 25.149163060304645 89.87179936324809 93.51377105172341 0 0 0
324 7 5 0.75 28.113698987826695 89.8443481603639 95.90685967646994 0 0 0
325 7 5 0.75 26.580810089620222 86.83468759741089 97.66989538840568 0 0 0
326 7 5 0.75 28.91692104284046 89.33510117487157 99.34519164754755 0 0 0
327 7 5 0.75 29.925175815915306 91.33250284259469 96.26137763072542 0 0 0
328 7 5 0.75 28.979005539485247 88.48950606250408 93.90803296485204 0 0 0
329 7 5 0.75 25.788685517611654 90.56844556190975 94.03440034926496 0 0 0
330 7 5 0.75 28.051122968997795 87.53861587311016 93.5679147273708 0 0 0
331 7 5 0.75 29.14502476817482 85.23912695303292 90.73386646380871 0 0 0
332 7 5 0.75 25.701093950099374 86.58300106265655 89.8122141986927 0 0 0
333 7 5 0.75 28.455866532290155 84.78960869827633 87.88579995253673 0 0 0
334 7 5 0.75 31.829390112002276 84.88393558590279 89.65400273937907 0 0 0
335 7 5 0.75 32.659736686596204 81.60731527982979 87.89605395289801 0 0 0
336 7 5 0.75 30.145865762619245 80.89429891511597 85.12330069282717 0 0 0
337 7 5 0.75 31.428434324944867 81.92361367630399 81.68649563502503 0 0 0
338 7 5 0.75 32.96485271032412 83.41610950103593 78.53562674561907 0 0 0
339 7 5 0.75 30.60818383672249 86.07548225708418 77.16087281687923 0 0 0
340 7 5 0.75 33.28459364438865 83.90059091365802 78.78037217955844 0 0 0
341 7 5 0.75 35.141709120350505 85.00100057770112 81.91984995145356 0 0 0
342 7 5 0.75 34.24262322789152 88.65947787868932 81.35126539649677 0 0 0
343 7 5 0.75 34.86569371358611 84.9200721998451 80.97083361695681 0 0 0
344 7 5 0.75 37.74154825546519 82.42211550293918 80.89485339363287 0 0 0
345 7 5 0.75 35.58118204194366 84.07833855080155 78.22917467345594 0 0 0
346 7 5 0.75 38.99654289621913 84.65699240688669 79.81554472798942 0 0 0
347 7 5 0.75 37.88881458014722 81.05737592345697 79.23952463285943 0 0 0
348 7 5 0.75 37.735166792006396 84.81775156206659 79.83287732203402 0 0 0
349 7 5 0.75 41.54074719389092 84.82273011544696 80.01627039387336 0 0 0
350 7 5 0.75 43.03268900003994 85.90837260104291 76.68286522190073 0 0 0
351 8 5 0.75 36.510801564178614 54.1754870338134 106.24065110845848 0 0 0
352 8 5 0.75 34.8537468839533 57.53131064713847 105.52740664616434 0 0 0
353 8 5 0.75 32.73988210898923 58.78628699910494 1.5470057147434488 0 0 1
354 8 5 0.75 33.53655613712809 60.05513346429657 5.050067110245919 0 0 1
355 8 5 0.75 30.93400008637453 59.288722236151514 2.375106207342995 0 0 1
356 8 5 0.75 31.793707033773103 61.17301867854314 106.06842001664407 0 0 0
357 8 5 0.75 33.097571084099066 59.58468710201913 2.3855352591962458 0 0 1
358 8 5 0.75 36.26695492275225 57.848460508433995 1.1786287594988636 0 0 1
359 8 5 0.75 32.628903941692364 58.978765730639324 1.1229945625999136 0 0 1
360 8 5 0.75 31.985807131058515 61.95612385088127 3.4116328293388847 0 0 1
361 8 5 0.75 30.999193159462397 58.3047254665263 2.9533941254069163 0 0 1
362 8 5 0.75 34.03598383686321 59.428251500986384 4.961301402036469 0 0 1
363 8 5 0.75 36.79559750290319 62.04455964694857 4.725581017730633 0 0 1
364 8 5 0.75 35.182654316311215 63.0132822097923 1.4125626246238312 0 0 1
365 8 5 0.75 33.838666637711945 59.75588524427701 106.85490700361561 0 0 0
366 8 5 0.75 36.79374205004537 57.455433071909404 106.15380136958345 0 0 0
367 8 5 0.75 35.10697260029559 54.086515877656595 105.58696297845364 0 0 0
368 8 5 0.75 32.251493323874676 51.971165800735996 104.21305171712608 0 0 0
369 8 5 0.75 29.953660220796436 48.98377974505914 103.65485140832529 0 0 0
370 8 5 0.75 27.152168053633957 49.473271848379866 106.19022891830559 0 0 0
371 8 5 0.75 27.698420353235303 47.06732234071674 103.28693503174229 0 0 0
372 8 5 0.75 26.601835670313466 50.68347102325113 103.77383413729292 0 0 0
373 8 5 0.75 30.24398751881921 51.79314720547682 103.63437560213929 0 0 0
374 8 5 0.75 32.98331509050144 53.66492439279249 101.76124063207808 0 0 0
375 8 5 0.75 35.3480082149214 53.43694369664827 98.78259140306393 0 0 0
376 8 5 0.75 34.46609599352705 57.06243834599801 98.01180000372705 0 0 0
377 8 5 0.75 32.609284977414156 58.384122128769945 94.95868604764884 0 0 0
378 8 5 0.75 33.74515791839861 58.70109589634884 91.33578385567537 0 0 0
379 8 5 0.75 36.5735508135763 60.61179293296526 93.02857163468774 0 0 0
380 8 5 0.75 36.40290806305854 56.910455768297545 93.91574931990378 0 0 0
381 8 5 0.75 33.21901487874447 55.769504617193974 92.16156727072136 0 0 0
382 8 5 0.75 36.85593947026099 55.6764071309211 91.0301025679259 0 0 0
383 8 5 0.75 33.270246955964225 56.92391098830822 90.70972260800268 0 0 0
384 8 5 0.75 35.04878150774041 60.05374752978135 89.46190929191815 0 0 0
385 8 5 0.75 36.77169410246606 56.81552099626388 88.43158841541455 0 0 0
386 8 5 0.75 38.0836574692255 59.52391480545826 86.09504072735022 0 0 0
387 8 5 0.75 37.73214346732491 63.212061132298984 86.98392462206264 0 0 0
388 8 5 0.75 41.47129153013234 62.542892585788096 86.68882257062292 0 0 0
389 8 5 0.75 45.234404951591074 63.03954284775609 87.01808826049094 0 0 0
390 8 5 0.75 44.12194331960462 60.42449423235899 84.4803629293198 0 0 0
391 8 5 0.75 45.190778429941474 60.98476585510699 80.86653016954044 0 0 0
392 8 5 0.75 47.49525826139245 62.46298339606037 83.51612364931303 0 0 0
393 8 5 0.75 50.48825325301086 64.30874747689913 82.0494144286314 0 0 0
394 8 5 0.75 50.688403900554086 64.18527360952555 78.24667937049708 0 0 0
395 8 5 0.75 51.610463682872975 60.528252726448684 78.78714585287105 0 0 0
396 8 5 0.75 52.353837717582266 63.19323759937801 81.40656385532463 0 0 0
397 8 5 0.75 54.02332477099085 60.29742234169253 83.23499678323233 0 0 0
398 8 5 0.75 50.81824534672198 62.31816908796182 82.83481123680363 0 0 0
399 8 5 0.75 52.71585853029596 65.55204319822778 82.15862897995434 0 0 0
400 8 5 0.75 55.120434097467 63.63232857468054 79.91167279304214 0 0 0
401 9 5 0.75 60.463824594358826 27.600426494850264 27.84708801160882 0 0 0
402 9 5 0.75 57.07757850354635 29.066427802156472 26.898258427629845 0 0 0
403 9 5 0.75 60.244397715149596 31.031965049870006 27.688207418939598 0 0 0
404 9 5 0.75 62.34010950298457 30.859567631234597 24.511043395415253 0 0 0
405 9 5 0.75 62.19770437684259 34.21165785617516 22.705686947533994 0 0 0
406 9 5 0.75 65.67565335206032 33.398199401470464 21.379694387882402 0 0 0
407 9 5 0.75 66.68774997192924 36.921562039995635 20.34158256852243 0 0 0
408 9 5 0.75 63.28764995836123 36.53333561161674 18.66685866947429 0 0 0
409 9 5 0.75 64.97365103637432 33.346129015365044 17.435918184418924 0 0 0
410 9 5 0.75 64.17148325819754 32.68254763117947 13.770909780306146 0 0 0
411 9 5 0.75 65.03642641084963 35.157974473612484 16.535007334742744 0 0 0
412 9 5 0.75 66.98102247061603 31.92315839954034 17.05521030596217 0 0 0
413 9 5 0.75 67.01770782083199 35.72404796092495 16.794456155013282 0 0 0
414 9 5 0.75 68.73507752935308 36.13405090019016 13.418269123160918 0 0 0
415 9 5 0.75 68.99054420742222 36.20436588237583 9.617493862812506 0 0 0
416 9 5 0.75 71.17700873582486 38.98898236170351 8.209877462974205 0 0 0
417 9 5 0.75 69.97674475945635 38.6730881895074 4.607700723972549 0 0 0
418 9 5 0.75 69.48274256756525 34.95647375543808 3.9303241795938817 0 0 0
419 9 5 0.75 67.40028520238992 33.89448614839772 6.9389208033903795 0 0 0
420 9 5 0.75 70.75910835167389 35.05773767811402 8.310508544093421 0 0 0
421 9 5 0.75 67.50871426672846 34.199241051626494 10.103277864129147 0 0 0
422 9 5 0.75 67.19499389516454 35.32386911990581 13.729969364174904 0 0 0
423 9 5 0.75 64.53880860155368 37.19227142730781 11.737520493136982 0 0 0
424 9 5 0.75 63.64755586958101 37.407384999151915 8.039481185752631 0 0 0
425 9 5 0.75 63.628517492628525 36.53053995455283 11.747159746249082 0 0 0
426 9 5 0.75 63.52847189130951 39.63086306000138 9.534901280454775 0 0 0
427 9 5 0.75 65.89116966912248 39.89152586525312 12.512452978188328 0 0 0
428 9 5 0.75 67.69735642257892 43.17684731981221 11.833886583609118 0 0 0
429 9 5 0.75 69.18174031330082 46.30654820302773 13.420605476975332 0 0 0
430 9 5 0.75 67.63330319693434 43.659459287993144 11.159773158434286 0 0 0
431 9 5 0.75 65.67008537299785 41.34687029991632 13.464942989054986 0 0 0
432 9 5 0.75 68.14532405610973 42.4150851665378 10.772692915165972 0 0 0
433 9 5 0.75 66.11233145919468 43.365931734388404 13.85148032343166 0 0 0
434 9 5 0.75 68.02963102276098 41.12464326752783 16.263261489264544 0 0 0
435 9 5 0.75 68.49390126728835 37.55944821353323 15.002334303809754 0 0 0
436 9 5 0.75 68.58538188398931 34.23233645898776 16.856534581431713 0 0 0
437 9 5 0.75 68.3411237827724 37.5707065358054 18.67634864066922 0 0 0
438 9 5 0.75 67.82973749645005 40.83147616876458 20.579494842865124 0 0 0
439 9 5 0.75 67.46644613685201 44.12635952800616 22.457755484265654 0 0 0
440 9 5 0.75 68.62592448012977 40.85795825663669 20.880015613190476 0 0 0
441 9 5 0.75 68.156419048152 44.51380962700811 19.9154351825903 0 0 0
442 9 5 0.75 68.9175759756064 46.26373819561245 16.61778599922186 0 0 0
443 9 5 0.75 71.0799784609276 46.50083946952296 19.745708389145662 0 0 0
444 9 5 0.75 72.87530104701113 49.19843688908276 17.741741080559358 0 0 0
445 9 5 0.75 72.4495986178767 45.75986820610023 19.326393362367842 0 0 0
446 9 5 0.75 71.97536283560702 47.262737218904135 22.7951950507278 0 0 0
447 9 5 0.75 75.42968633099738 48.83755664578616 23.11720896643499 0 0 0
448 9 5 0.75 73.15013256741847 47.99000042268766 20.184397501706957 0 0 0
449 9 5 0.75 74.92613502501396 49.01927171304281 16.97464425862652 0 0 0
450 9 5 0.75 76.0846228783717 47.54664202630587 20.292078161413976 0 0 0
451 10 5 0.75 86.55947880152094 6.698342096069524 61.89242391856846 0 0 0
452 10 5 0.75 88.94714678897034 3.7479541150960203 61.56023068649349 0 0 0
453 10 5 0.75 86.1198981735381 5.647119158274289 59.852619078045535 0 0 0
454 10 5 0.75 89.17509475855988 4.586896590878309 61.867017731355155 0 0 0
455 10 5 0.75 89.92167518653923 3.9373097009012166 58.187784857925145 0 0 0
456 10 5 0.75 88.62293154651073 3.266839699721678 61.70628381842006 0 0 0
457 10 5 0.75 90.19268259730096 0.1186377522978721 60.243134428651565 0 0 0
458 10 5 0.75 91.05509455305256 3.276232826726931 62.19299056809315 0 0 0
459 10 5 0.75 93.92284135303049 2.942857957156855 59.70683098199345 0 0 0
460 10 5 0.75 92.62664790020733 0.49186581590697465 62.31999382735722 0 0 0
461 10 5 0.75 89.76892548429012 105.08074869234464 61.29584002895625 0 -1 0
462 10 5 0.75 89.00634960177447 101.5220659638952 60.16873965115436 0 -1 0
463 10 5 0.75 88.27026769010676 100.40094359540537 63.73488155161028 0 -1 0
464 10 5 0.75 89.57095840519213 100.24090126678067 67.31240724917544 0 -1 0
465 10 5 0.75 87.54443308153292 101.29014849436243 64.26144422613174 0 -1 0
466 10 5 0.75 90.187662227188 103.63444204250939 62.83535606487522 0 -1 0
467 10 5 0.75 89.7076192271027 100.22037214155 64.45701738260843 0 -1 0
468 10 5 0.75 89.48969374160178 102.62965487191418 67.40047881567293 0 -1 0
469 10 5 0.75 87.12540041518461 103.3891467154926 70.29000978214432 0 -1 0
470 10 5 0.75 88.8756935353219 101.58269327408924 73.15170507648334 0 -1 0
471 10 5 0.75 90.74148272892839 98.39626221793368 74.09063415228654 0 -1 0
472 10 5 0.75 92.20648227563836 98.09641598777648 70.58635554372813 0 -1 0
473 10 5 0.75 95.49991202764299 98.45435697214836 68.70452167212372 0 -1 0
474 10 5 0.75 95.50229342733395 100.39781245174476 71.98157448337993 0 -1 0
475 10 5 0.75 97.00622325285867 103.51431824944075 73.5758413032142 0 -1 0
476 10 5 0.75 98.87270174197435 102.55474715127313 70.39597002323606 0 -1 0
477 10 5 0.75 96.79889939517929 104.24534319323485 67.68353037426124 0 -1 0
478 10 5 0.75 96.70506916913382 105.11006493628189 71.39291741200506 0 -1 0
479 10 5 0.75 97.49736146813535 1.5259592540208473 73.11092405844755 0 0 0
480 10 5 0.75 94.68814595992606 3.570132234836684 74.67481825337856 0 0 0
481 10 5 0.75 92.25737136344873 0.6603111437038605 74.30015029542237 0 0 0
482 10 5 0.75 92.64809114476022 105.26306046969268 71.27914650268234 0 -1 0
483 10 5 0.75 95.71395712669126 103.04043343505825 70.85903360624832 0 -1 0
484 10 5 0.75 93.00998838308223 103.35629577439452 73.52453243689418 0 -1 0
485 10 5 0.75 91.4960214317448 106.12125104327316 71.38466645245535 0 -1 0
486 10 5 0.75 93.96012230121492 1.9146973691418214 72.49687999379421 0 0 0
487 10 5 0.75 92.02770338280794 0.6435128854456456 69.46934846923614 0 0 0
488 10 5 0.75 91.81629729477051 105.13101093659277 66.52084742855266 0 -1 0
489 10 5 0.75 93.56618804208475 0.3551422363076293 69.16270014364639 0 0 0
490 10 5 0.75 94.03069788391014 4.123878097196208 68.85131514448975 0 0 0
491 10 5 0.75 93.30859496173662 2.3634265044016343 65.55048531561103 0 0 0
492 10 5 0.75 92.34771088363016 105.66551127271707 64.70721526419223 0 -1 0
493 10 5 0.75 89.07213113501416 0.7036130155220512 64.96118252427999 0 0 0
494 10 5 0.75 85.4239100800158 0.829701339862516 66.05236759947655 0 0 0
495 10 5 0.75 82.35818224611873 1.660966416755963 63.94846379454486 0 0 0
496 10 5 0.75 79.20777969103396 3.800207731600988 64.06974997584979 0 0 0
497 10 5 0.75 77.2317135545199 5.974275946562788 61.643911972021996 0 0 0
498 10 5 0.75 79.68522324749648 7.531438797610046 59.17984337683469 0 0 0
499 10 5 0.75 77.7105089669786 7.3421321870992395 55.9270343573047 0 0 0
500 10 5 0.75 74.18152030800275 8.449307542444583 55.01242964633072 0 0 0
501 11 5 0.75 44.38540584380969 81.80408554517614 52.13988414849435 0 0 0
502 11 5 0.75 46.7158083890162 83.07607061974531 49.407233796296275 0 0 0
503 11 5 0.75 45.716649490029795 81.60444229391607 46.03794728945343 0 0 0
504 11 5 0.75 42.15936122987298 82.77598522513958 46.73743810029422 0 0 0
505 11 5 0.75 45.73715861612078 81.46662022943316 46.705357405521106 0 0 0
506 11 5 0.75 43.105351003656956 83.44296813910107 44.786050856027586 0 0 0
507 11 5 0.75 39.77133186348363 85.27041825928629 45.03271344174527 0 0 0
508 11 5 0.75 37.359917422624974 88.03485449472645 46.061826017999095 0 0 0
509 11 5 0.75 38.44604325923459 91.45611136895043 47.33910126931503 0 0 0
510 11 5 0.75 37.98978625415599 91.33966843664595 51.11989094725706 0 0 0
511 11 5 0.75 36.45701509055775 89.26705028778987 53.92541524212142 0 0 0
512 11 5 0.75 39.16781483846246 89.79504430348459 51.300746301826216 0 0 0
513 11 5 0.75 38.38728785371092 93.29394743810742 52.59092244507224 0 0 0
514 11 5 0.75 38.97339571474601 92.50025553648449 48.91089109459015 0 0 0
515 11 5 0.75 39.66088153586003 90.00331764596665 46.11647444407729 0 0 0
516 11 5 0.75 43.19811668714554 89.04285011490505 45.07648905654217 0 0 0
517 11 5 0.75 46.7210837215401 90.35934960425668 45.686105632027264 0 0 0
518 11 5 0.75 49.36861184128227 90.33456629268602 42.94638290104844 0 0 0
519 11 5 0.75 48.17235647565474 91.5913357445844 39.554391797731334 0 0 0
520 11 5 0.75 45.28007950914682 91.75807574225749 37.079915747698976 0 0 0
521 11 5 0.75 46.83181377423384 89.52085308878065 39.74507157228503 0 0 0
522 11 5 0.75 46.64325177970341 85.74910249874473 40.249493876294686 0 0 0
523 11 5 0.75 47.171488534947954 87.75003112643282 43.448454732151944 0 0 0
524 11 5 0.75 49.02864595934027 86.33553005165858 40.437432810862255 0 0 0
525 11 5 0.75 45.82093317952521 87.98811582132005 41.66039601395693 0 0 0
526 11 5 0.75 48.56321483248305 86.77330151993105 39.31088169201897 0 0 0
527 11 5 0.75 46.4474051338534 89.01841295106573 37.07505433263428 0 0 0
528 11 5 0.75 47.8720324064124 88.71280897612728 40.595443990723695 0 0 0
529 11 5 0.75 49.02512275598239 92.00767425529347 42.1219908907152 0 0 0
530 11 5 0.75 49.11890967473106 95.65635044308605 41.029074567062324 0 0 0
531 11 5 0.75 52.253676250720105 95.22285861172412 38.907418764109266 0 0 0
532 11 5 0.75 48.82420300748148 95.41641915185905 40.55585668869515 0 0 0
533 11 5 0.75 45.90283301249824 94.34155614068457 42.75275606272679 0 0 0
534 11 5 0.75 44.260575785942535 91.5715476178421 40.716547825535514 0 0 0
535 11 5 0.75 45.723823570782145 94.96809645566043 39.80087216653998 0 0 0
536 11 5 0.75 46.69977661430138 91.66147211343645 41.42255373708871 0 0 0
537 11 5 0.75 44.20779219867323 91.08033990672821 44.245389019317 0 0 0
538 11 5 0.75 44.39928775036953 94.15378965294003 46.48889879446642 0 0 0
539 11 5 0.75 42.41605932713795 95.94501118446662 49.204489051902534 0 0 0
540 11 5 0.75 43.024235922564 97.53484568341702 45.79587533152835 0 0 0
541 11 5 0.75 46.48786716812583 99.07526789388818 45.41317700614017 0 0 0
542 11 5 0.75 47.96844943054036 101.56449995488212 47.88859614453741 0 0 0
543 11 5 0.75 47.08643998468665 101.55626910124776 51.59508931065458 0 0 0
544 11 5 0.75 50.45676089403316 100.49235906061561 50.172017846017674 0 0 0
545 11 5 0.75 50.92290002657157 102.44504507572532 46.93383446092175 0 0 0
546 11 5 0.75 49.67608731711404 100.53896236455984 43.879590402937644 0 0 0
547 11 5 0.75 47.60703237597248 99.59241650763298 40.823586052274464 0 0 0
548 11 5 0.75 47.79435264218694 100.55693723430629 37.1424570290422 0 0 0
549 11 5 0.75 44.393662820337994 99.62941066672208 35.6963922995095 0 0 0
550 11 5 0.75 44.16982271242251 98.91907928107565 31.959893279216033 0 0 0
551 12 5 0.75 61.9723168260881 35.318885888973206 81.24670693421879 0 0 0
552 12 5 0.75 59.09967583420968 32.81938695519149 81.11810362242686 0 0 0
553 12 5 0.75 60.05683867174013 35.06820632806199 84.04090206410103 0 0 0
554 12 5 0.75 59.018973232319794 31.47418234346398 84.76334716775325 0 0 0
555 12 5 0.75 61.6528414901651 34.12317915794019 84.01391146189864 0 0 0
556 12 5 0.75 60.95343292701238 34.34746904162769 80.27537943584028 0 0 0
557 12 5 0.75 62.28202740983665 37.843094531869625 79.54631213292528 0 0 0
558 12 5 0.75 59.31697192330005 38.5199766132724 77.25145339879042 0 0 0
559 12 5 0.75 61.5483741564514 35.687408379214816 76.02120900303196 0 0 0
560 12 5 0.75 60.20816665237207 32.36954887953479 74.71286952629342 0 0 0
561 12 5 0.75 60.21516655433689 30.935622899291292 78.24272891224 0 0 0
562 12 5 0.75 57.630214124555465 30.37697278785317 75.5000967843823 0 0 0
563 12 5 0.75 58.06277404183458 31.299043864926578 71.8287514115267 0 0 0
564 12 5 0.75 56.75130559472058 34.86033778415516 71.49209708868217 0 0 0
565 12 5 0.75 59.722010196696665 36.97428913919196 72.59763941547757 0 0 0
566 12 5 0.75 60.94441017133376 36.34829935113965 69.04377179171027 0 0 0
567 12 5 0.75 60.11782904306443 33.23213896040529 71.0741432004942 0 0 0
568 12 5 0.75 63.16514478928373 34.6422918301516 69.27374445943983 0 0 0
569 12 5 0.75 63.50515767571534 36.50432473413368 72.58030229222432 0 0 0
570 12 5 0.75 64.78668389675467 32.983563942645056 71.88890226770522 0 0 0
571 12 5 0.75 63.19258530063598 35.9161487114349 70.05181320080774 0 0 0
572 12 5 0.75 59.395199763232725 35.78066035654518 69.77323469120971 0 0 0
573 12 5 0.75 61.04633012324025 37.65578761662068 66.89681916267716 0 0 0
574 12 5 0.75 60.676514384095015 41.12893956357823 65.37479686572306 0 0 0
575 12 5 0.75 62.246647078778224 41.52456906666804 61.92599118587217 0 0 0
576 12 5 0.75 64.52378395852428 43.7560599611492 64.01194325117667 0 0 0
577 12 5 0.75 62.56815211236401 43.595461868865385 67.27779877998357 0 0 0
578 12 5 0.75 59.86102818433933 41.260261856445325 65.9608246191476 0 0 0
579 12 5 0.75 56.2092004107896 40.3992159127917 65.29836420882226 0 0 0
580 12 5 0.75 58.78271894846717 43.191696512884164 65.60683533281468 0 0 0
581 12 5 0.75 60.66021905090948 39.9774661508881 66.41912625690023 0 0 0
582 12 5 0.75 61.58515695310643 43.67042036302939 66.26853055939411 0 0 0
583 12 5 0.75 61.23389797533652 41.09706340433023 63.480959736320614 0 0 0
584 12 5 0.75 63.576710844711016 39.01398883039525 61.315751160104725 0 0 0
585 12 5 0.75 62.193157867010235 40.74729530786765 64.41373918671934 0 0 0
586 12 5 0.75 65.34948198214416 40.93666019956638 66.53926477301935 0 0 0
587 12 5 0.75 63.77982266942855 44.02693706362959 64.957348673651 0 0 0
588 12 5 0.75 60.698589250764535 44.61224230680236 62.79412922291962 0 0 0
589 12 5 0.75 58.43191905714615 42.31433055080547 64.81845819692886 0 0 0
590 12 5 0.75 59.49139440034943 44.765441258578704 67.53611680230661 0 0 0
591 12 5 0.75 58.60040903185449 41.24186105376136 68.67919493320902 0 0 0
592 12 5 0.75 56.49265613318726 38.445600596080766 67.17772726090574 0 0 0
593 12 5 0.75 57.012907103522046 36.630088478726385 63.86874634835802 0 0 0
594 12 5 0.75 53.383406855985626 37.46160474548836 63.061647437911894 0 0 0
595 12 5 0.75 53.50116538211609 39.44153561747422 59.808632425391835 0 0 0
596 12 5 0.75 50.896673545343965 41.83266661537871 61.2282150482242 0 0 0
597 12 5 0.75 52.32575318779425 43.70413646143255 64.22344992897152 0 0 0
598 12 5 0.75 48.538650284871856 43.99005123247067 63.91979824302359 0 0 0
599 12 5 0.75 46.37236531086369 44.46317530824905 60.82149822199508 0 0 0
600 12 5 0.75 47.8251006903375 41.33818090060277 59.19666904038718 0 0 0
601 13 5 0.75 106.49865019860907 84.08357908133077 20.718024928730276 0 0 0
602 13 5 0.75 0.976517077855533 80.78509064478271 22.045333961275926 1 0 0
603 13 5 0.75 2.0510346393573258 84.3372870274454 22.907547895878245 1 0 0
604 13 5 0.75 0.845142868929031 82.5542994735533 26.051252783535357 1 0 0
605 13 5 0.75 104.9980605796622 83.95048836201642 28.302609130652748 0 0 0
606 13 5 0.75 1.0569187424424342 82.43254035986149 30.175876971198754 1 0 0
607 13 5 0.75 105.21262162242498 84.9827078998882 29.447976088877684 0 0 0
608 13 5 0.75 102.26612285881771 86.77485214301042 31.0673784625652 0 0 0
609 13 5 0.75 104.16271293903579 89.74274928459812 32.52018010923758 0 0 0
610 13 5 0.75 105.9847854127324 86.80132025953164 30.925141805279477 0 0 0
611 13 5 0.75 102.44452473980644 87.09524920706463 29.548094187534925 0 0 0
612 13 5 0.75 101.05122214642685 89.43683898331905 26.88505734906978 0 0 0
613 13 5 0.75 97.45116659124847 90.52884793682553 26.28238293855373 0 0 0
614 13 5 0.75 94.65084122060945 88.81590889073055 28.21632131474845 0 0 0
615 13 5 0.75 95.5558000571744 85.12208785324553 28.446181374689548 0 0 0
616 13 5 0.75 93.70415903174857 88.45187785528121 28.451085995293276 0 0 0
617 13 5 0.75 94.78955057002557 92.0161945574734 27.655051036820655 0 0 0
618 13 5 0.75 95.84251300705124 90.98448468515454 24.141798292486314 0 0 0
619 13 5 0.75 94.3471575726035 93.09755886900992 26.93731785389016 0 0 0
620 13 5 0.75 95.45218155510727 92.41158791803544 23.356191515360525 0 0 0
621 13 5 0.75 93.5628054221153 91.12145649026455 26.40281566795273 0 0 0
622 13 5 0.75 93.1554929354224 92.6684661782863 29.860699061497243 0 0 0
623 13 5 0.75 95.60856316711127 93.41357177939312 32.67909649294674 0 0 0
624 13 5 0.75 97.49703576174663 91.00655270014272 30.408407079698918 0 0 0
625 13 5 0.75 99.8722906128847 91.0416159496892 33.38717107852063 0 0 0
626 13 5 0.75 100.65339429222306 92.98244252766862 30.20296486090018 0 0 0
627 13 5 0.75 103.97536786313728 91.15513730290759 29.826737257303115 0 0 0
628 13 5 0.75 102.25828211879158 94.55028882507874 29.625087342689326 0 0 0
629 13 5 0.75 103.71379073294358 95.60575517440888 32.98419220255319 0 0 0
630 13 5 0.75 100.99586895153732 93.74905799035118 31.065422608029237 0 0 0
631 13 5 0.75 99.83181210615842 91.5089400602056 33.91900690146913 0 0 0
632 13 5 0.75 102.36047655588135 91.12537553138976 36.74298182220439 0 0 0
633 13 5 0.75 100.42219858641215 92.25582865005751 39.8221463614203 0 0 0
634 13 5 0.75 99.34112357201255 93.02392584366258 36.250395598220706 0 0 0
635 13 5 0.75 101.26317744883417 95.14933218484025 33.73952786385541 0 0 0
636 13 5 0.75 102.29650385954918 92.20431509794342 31.55430227211331 0 0 0
637 13 5 0.75 99.99087421943314 89.95525716873153 29.519133877688038 0 0 0
638 13 5 0.75 100.86194335282102 90.38819945605371 33.2028683334689 0 0 0
639 13 5 0.75 97.56037921500534 90.21337358931142 31.30940321358756 0 0 0
640 13 5 0.75 96.86324532332682 92.86609983383745 33.95385926515582 0 0 0
641 13 5 0.75 94.53792411470671 95.44174405762494 35.52708464926696 0 0 0
642 13 5 0.75 95.75366192569851 96.25154900894452 39.04593353999006 0 0 0
643 13 5 0.75 93.94864163126279 95.6812692793111 42.3524094232598 0 0 0
644 13 5 0.75 93.41238534658851 92.05428573348614 43.388517311205035 0 0 0
645 13 5 0.75 96.46583083786182 93.27417187402335 45.31321168589103 0 0 0
646 13 5 0.75 97.54833962346221 94.42831125997913 48.77907911077669 0 0 0
647 13 5 0.75 100.29000195667504 94.38220791391913 46.133845258709165 0 0 0
648 13 5 0.75 96.72445323306286 93.13060988529088 46.62012159401807 0 0 0
649 13 5 0.75 93.24395764516692 91.98096877865791 45.58061411998216 0 0 0
650 13 5 0.75 89.53807997710133 92.8352177050782 45.35076747318773 0 0 0
651 14 5 0.75 9.392744364453858 42.04754709595793 20.247139700604475 0 0 0
652 14 5 0.75 12.087582408304367 42.66330412593058 22.869122003644527 0 0 0
653 14 5 0.75 15.617479744610614 42.2368758494832 24.23809377843909 0 0 0
654 14 5 0.75 16.172808152390907 40.403913383424154 20.94446979298918 0 0 0
655 14 5 0.75 14.953691934510564 42.344142289681045 23.98837640105493 0 0 0
656 14 5 0.75 16.629138408967513 43.87491780387155 20.92803239483854 0 0 0
657 14 5 0.75 17.80187465632295 41.82598145616941 17.9376060812164 0 0 0
658 14 5 0.75 19.436300874340205 43.39212793618523 14.872979490424 0 0 0
659 14 5 0.75 15.902452412074192 44.505694399245534 13.985294423473164 0 0 0
660 14 5 0.75 14.982292560557681 46.26972867317423 10.736050060846372 0 0 0
661 14 5 0.75 14.727312301683464 50.04245407056821 11.202556377462617 0 0 0
662 14 5 0.75 14.805593239946953 50.52483409304013 14.981085404560938 0 0 0
663 14 5 0.75 13.732401512480735 48.805493968368644 18.20726411191624 0 0 0
664 14 5 0.75 10.494341671149018 46.83464105466717 17.82410976115241 0 0 0
665 14 5 0.75 13.375833082617305 44.48457980402322 16.99325516264778 0 0 0
666 14 5 0.75 14.687295227996355 46.30501295448827 13.913938649860299 0 0 0
667 14 5 0.75 13.018789884702969 43.936529396962044 16.38830231697339 0 0 0
668 14 5 0.75 9.934217834046272 44.8495449698946 14.34675441699892 0 0 0
669 14 5 0.75 13.062235237175688 43.23112546408556 12.89337028713637 0 0 0
670 14 5 0.75 14.0509403856688 41.873312636103485 9.473588648857323 0 0 0
671 14 5 0.75 13.65486930970418 42.88048130537482 13.126647500617368 0 0 0
672 14 5 0.75 10.678697675258771 45.258037412699316 13.050954972277221 0 0 0
673 14 5 0.75 8.86696124675886 46.82553409638802 10.088411257786023 0 0 0
674 14 5 0.75 5.093098193999303 47.17965218834048 10.473973232011005 0 0 0
675 14 5 0.75 8.830671258661056 46.535669377487864 10.110746408054776 0 0 0
676 14 5 0.75 7.999210256958399 42.90376760269692 9.314466243214552 0 0 0
677 14 5 0.75 7.84345424394411 46.65808558595189 8.684437239899436 0 0 0
678 14 5 0.75 4.609931978372382 44.78235631342527 9.420693617962558 0 0 0
679 14 5 0.75 4.1323447255359165 44.8660554816606 13.199715298922436 0 0 0
680 14 5 0.75 3.6459402119111957 45.55232928993648 16.915699543937478 0 0 0
681 14 5 0.75 1.0669914619113618 44.35965175290045 19.453935868144498 0 0 0
682 14 5 0.75 106.5002986778979 43.02212797954424 22.70996095949197 -1 0 0
683 14 5 0.75 103.2700401801629 44.95498655824509 22.122093837981243 -1 0 0
684 14 5 0.75 106.56408566753407 46.72527300180993 22.85110017187699 -1 0 0
685 14 5 0.75 0.1796330583071747 48.381993068598945 26.24441608199048 0 0 0
686 14 5 0.75 1.5701118948604953 51.32305690569192 28.227547976555556 0 0 0
687 14 5 0.75 4.637470535275379 51.50435721833931 25.97487375072837 0 0 0
688 14 5 0.75 7.176694146085483 49.59922888785501 28.08175046726653 0 0 0
689 14 5 0.75 8.296121585145023 47.30171858270196 25.256077342788736 0 0 0
690 14 5 0.75 7.147809756914052 43.684567681098194 24.91888407451083 0 0 0
691 14 5 0.75 4.693948136874056 46.502383082633074 24.174183119383535 0 0 0
692 14 5 0.75 1.7077615854288046 48.551080266534626 22.99027867702285 0 0 0
693 14 5 0.75 106.0486238382875 49.022831682172324 20.199335461879 -1 0 0
694 14 5 0.75 103.53885437951486 46.64558580073716 21.80116544131242 -1 0 0
695 14 5 0.75 102.50222266804951 43.05988781058034 21.036793399588095 -1 0 0
696 14 5 0.75 102.42536039271543 44.11464330864765 17.376508843719897 -1 0 0
697 14 5 0.75 106.06725667674743 45.0080397489294 18.050700401695654 -1 0 0
698 14 5 0.75 2.0049162330214183 44.17382711714819 20.46270846262453 0 0 0
699 14 5 0.75 1.4700585748090238 42.89878802209344 24.012962339678044 0 0 0
700 14 5 0.75 5.235141911122284 42.327625934223 23.894550600413364 0 0 0
701 15 5 0.75 83.87439780346247 52.321076369015124 40.20904384146424 0 0 0
702 15 5 0.75 87.67389289770847 52.46006258239767 39.96283283177915 0 0 0
703 15 5 0.75 89.09558946907885 49.70486922434066 42.17728274511481 0 0 0
704 15 5 0.75 85.53083765465826 49.98787751245892 43.4920263742842 0 0 0
705 15 5 0.75 88.92504423782631 50.90997399589363 44.95667641644989 0 0 0
706 15 5 0.75 85.97689767190866 48.909613461456175 43.606458079241776 0 0 0
707 15 5 0.75 83.42677100471931 49.458482653737825 40.82946391449209 0 0 0
708 15 5 0.75 85.07038232443033 46.306822756478006 42.20120795829984 0 0 0
709 15 5 0.75 86.65953603467698 47.271096165206224 38.875419739181105 0 0 0
710 15 5 0.75 87.39279309129986 50.47373484433553 40.804548967578626 0 0 0
711 15 5 0.75 87.99713799627678 51.653283633244364 44.37659766411289 0 0 0
712 15 5 0.75 85.44954338296718 51.673051987159475 41.54367145638714 0 0 0
713 15 5 0.75 85.12526199906893 50.93304362917826 37.8203222632312 0 0 0
714 15 5 0.75 83.07208470192475 52.88590336499613 40.36726196387451 0 0 0
715 15 5 0.75 83.1912732722486 49.13325713608521 39.71954260694218 0 0 0
716 15 5 0.75 83.97527932495589 46.87585091443376 42.6869575863085 0 0 0
717 15 5 0.75 86.80231916893479 45.318233796691985 40.66266150246266 0 0 0
718 15 5 0.75 86.63751825041221 48.86482574956774 42.04491552291296 0 0 0
719 15 5 0.75 85.43454926411697 48.242942813508755 45.606127006642964 0 0 0
720 15 5 0.75 86.94332167274374 44.85491479683103 46.47846408436775 0 0 0
721 15 5 0.75 90.04668665515372 43.8303076929835 48.436883362432745 0 0 0
722 15 5 0.75 89.01402264561247 45.63388325102206 51.63012939896737 0 0 0
723 15 5 0.75 89.23945964852811 45.70889477351049 55.4327142342091 0 0 0
724 15 5 0.75 92.20607308824047 48.00090948105875 54.75302807155723 0 0 0
725 15 5 0.75 95.8430311278279 49.131921595618664 54.65582820016272 0 0 0
726 15 5 0.75 92.81114570995953 48.91645881119465 56.95307581447107 0 0 0
727 15 5 0.75 96.06253491257371 48.17425315476119 58.79527531959587 0 0 0
728 15 5 0.75 97.66471937119587 51.6189041934365 58.506339025055546 0 0 0
729 15 5 0.75 100.08579950094719 53.86437850447185 56.60572961652268 0 0 0
730 15 5 0.75 101.44967724084562 50.790080096741534 58.39587676433943 0 0 0
731 15 5 0.75 98.35704580410761 50.781994832868854 60.62111055542924 0 0 0
732 15 5 0.75 100.91361688663721 48.05015364097363 61.340198868668956 0 0 0
733 15 5 0.75 97.56551892874711 49.828008065546506 60.95865763970571 0 0 0
734 15 5 0.75 96.3880622902501 50.412141848599305 64.53475657401329 0 0 0
735 15 5 0.75 93.36843912465277 50.49246731546828 62.21279107961847 0 0 0
736 15 5 0.75 96.37906158812291 48.463374610707056 63.36822830332806 0 0 0
737 15 5 0.75 98.85704248291228 50.04641902683517 65.7909707703733 0 0 0
738 15 5 0.75 102.110665068806 51.13209589120088 67.44968889433027 0 0 0
739 15 5 0.75 98.87371099729626 50.47974663160891 65.54898671291248 0 0 0
740 15 5 0.75 97.95037168784138 51.61594752856646 69.06645626379253 0 0 0
741 15 5 0.75 99.01963787839992 55.220988085057606 68.45289909466938 0 0 0
742 15 5 0.75 95.68997517014522 56.256820882055116 69.98798758264726 0 0 0
743 15 5 0.75 93.50814599019448 56.533699918327784 66.8768689046171 0 0 0
744 15 5 0.75 93.55916285745694 53.192473309705925 65.04664978410393 0 0 0
745 15 5 0.75 91.88725509229543 54.744166390718775 61.99491699646844 0 0 0
746 15 5 0.75 88.89946283013421 52.420902381475244 62.43268604690849 0 0 0
747 15 5 0.75 85.19416587583106 53.29621281287072 62.28878980261414 0 0 0
748 15 5 0.75 84.73767402416341 56.966977462410576 61.375990768297385 0 0 0
749 15 5 0.75 88.53596487654336 57.26540055330422 61.381491636256456 0 0 0
750 15 5 0.75 86.53312048148763 54.42639413968293 62.945063480659854 0 0 0
751 16 5 0.75 52.05702561423513 69.08601394613754 19.500537509779452 0 0 0
752 16 5 0.75 53.03082031167082 71.54664837608094 16.75953366275128 0 0 0
753 16 5 0.75 55.574618190665376 74.01731336048618 18.15273389446841 0 0 0
754 16 5 0.75 56.02606355083529 70.26675208789257 17.65716631350495 0 0 0
755 16 5 0.75 58.04177741000763 72.02303700129536 20.371657230950472 0 0 0
756 16 5 0.75 59.25168349097045 71.1110884688267 16.87586302227951 0 0 0
757 16 5 0.75 60.971988367202535 73.3217958699989 14.293340240344259 0 0 0
758 16 5 0.75 60.678553963886024 71.89555375759254 17.814111418331965 0 0 0
759 16 5 0.75 58.578785207954446 70.1722154015263 15.142562039764446 0 0 0
760 16 5 0.75 54.876849447759184 69.6627140241896 15.88565017308345 0 0 0
761 16 5 0.75 55.835769008127414 72.71520891471192 17.95418787399158 0 0 0
762 16 5 0.75 59.13842947563879 73.18525793795465 19.794727944755078 0 0 0
763 16 5 0.75 58.50847800359775 70.95076618059294 16.77375000224111 0 0 0
764 16 5 0.75 60.57270020067691 68.3788697256135 14.865757511178877 0 0 0
765 16 5 0.75 58.641006204302364 65.43453451471555 16.32025002413213 0 0 0
766 16 5 0.75 56.624120058046664 64.34197705409788 19.362385535297022 0 0 0
767 16 5 0.75 56.04648636083802 63.05025282865116 22.899882932786262 0 0 0
768 16 5 0.75 55.54575936675673 65.64005730503396 20.150649357495528 0 0 0
769 16 5 0.75 53.62052939291613 63.08771663412453 18.078175799775828 0 0 0
770 16 5 0.75 52.342325528226574 66.64244930499102 17.5820200591388 0 0 0
771 16 5 0.75 52.77791194462242 70.40807920118591 17.964637307488417 0 0 0
772 16 5 0.75 56.095277558226286 68.85820952706906 16.911504182507734 0 0 0
773 16 5 0.75 59.76020731833984 68.50291994961816 17.890360234023362 0 0 0
774 16 5 0.75 56.10214985924975 69.50694929849236 17.534494117914154 0 0 0
775 16 5 0.75 59.8610225383196 69.48271210216245 18.156095872139723 0 0 0
776 16 5 0.75 56.7655810688535 70.39359019480419 16.13010396459051 0 0 0
777 16 5 0.75 55.377039586305486 70.43950822648573 19.677771379330775 0 0 0
778 16 5 0.75 55.534819191455604 71.55366183356571 23.317808101127593 0 0 0
779 16 5 0.75 57.131628271726115 68.0955049029632 23.231486583002283 0 0 0
780 16 5 0.75 57.21116644523305 70.33505400681616 20.150221665734286 0 0 0
781 16 5 0.75 55.72345429354248 66.9170455575174 19.362801324217493 0 0 0
782 16 5 0.75 53.648536936433096 64.60397731521289 17.158139611480465 0 0 0
783 16 5 0.75 54.63371817935167 68.17981535728714 18.029288402133357 0 0 0
784 16 5 0.75 50.9751942861042 68.69627745036395 18.95911087387304 0 0 0
785 16 5 0.75 47.91957856428308 67.30654933016898 20.761322934785667 0 0 0
786 16 5 0.75 50.44281940725814 64.70227011209114 21.930547208665747 0 0 0
787 16 5 0.75 53.52482491507456 64.52684428050458 24.163609641156476 0 0 0
788 16 5 0.75 54.63282495766737 67.0067350972406 21.491798000586968 0 0 0
789 16 5 0.75 51.0468883294563 67.07254499107208 20.206174589035932 0 0 0
790 16 5 0.75 50.72464841036868 67.12070106324204 24.00221758500681 0 0 0
791 16 5 0.75 49.78650741520005 70.77259918682715 23.45483146156236 0 0 0
792 16 5 0.75 46.420666472271634 69.60155368036433 24.802372618150905 0 0 0
793 16 5 0.75 44.977270440192775 72.40751145869238 22.66711880634789 0 0 0
794 16 5 0.75 42.13744516517286 70.87912131186539 24.695792256275258 0 0 0
795 16 5 0.75 45.89966233800279 71.09772712170557 25.256179126542325 0 0 0
796 16 5 0.75 48.42641186375919 71.15051955566123 28.1072929076824 0 0 0
797 16 5 0.75 51.12350869961265 68.61180135893979 27.214724380529056 0 0 0
798 16 5 0.75 54.656881241593666 69.65626176661551 28.184508344292368 0 0 0
799 16 5 0.75 51.0922456063638 71.00133379932402 28.200446188398725 0 0 0
800 16 5 0.75 49.30330906755572 74.21736228348536 29.18683700809461 0 0 0
801 17 5 0.75 91.14695380439626 63.99200216272721 96.12284999628335 0 0 0
802 17 5 0.75 88.7404879441285 66.73992929549631 95.03937478366556 0 0 0
803 17 5 0.75 89.408455431363 67.72168748314343 91.419144087013 0 0 0
804 17 5 0.75 85.71839108466426 67.52475851526772 92.34690704102347 0 0 0
805 17 5 0.75 84.8233476079662 71.1944222342553 92.84547034128381 0 0 0
806 17 5 0.75 86.18282679062203 69.18605587904281 95.78390205483034 0 0 0
807 17 5 0.75 89.96828945772039 69.44476931825517 95.43830148715799 0 0 0
808 17 5 0.75 91.16623585987456 69.86702911315021 91.84626570181548 0 0 0
809 17 5 0.75 91.4054631506405 72.7604718760283 89.37910958975019 0 0 0
810 17 5 0.75 88.19568161347715 74.6837847517736 88.66198333470327 0 0 0
811 17 5 0.75 84.69175290437022 74.11396620758994 90.04541762233698 0 0 0
812 17 5 0.75 83.70657419319441 72.5679202466469 86.70546780329813 0 0 0
813 17 5 0.75 82.65617004999785 74.25041466666005 89.95846083473552 0 0 0
814 17 5 0.75 80.11644877280432 74.23138483181388 92.79845268323723 0 0 0
815 17 5 0.75 76.36934092694858 74.80093630276559 93.18690334093145 0 0 0
816 17 5 0.75 73.5387388582608 74.65344197985233 90.64091878609833 0 0 0
817 17 5 0.75 75.52986551373908 77.81308995287046 91.39466896251379 0 0 0
818 17 5 0.75 76.15823732478736 81.38225300943196 90.21894623042242 0 0 0
819 17 5 0.75 77.02274754531174 79.10590988254562 87.28859061253469 0 0 0
820 17 5 0.75 79.46582994964602 79.1904078460881 84.36620999738727 0 0 0
821 17 5 0.75 78.98131630082841 82.74265767065316 85.65573227636776 0 0 0
822 17 5 0.75 81.11690233909673 79.86458538534727 84.36264597077654 0 0 0
823 17 5 0.75 80.43864223809193 80.38939772715365 80.65041817048294 0 0 0
824 17 5 0.75 80.51833505056958 82.9552133769745 83.4657936528607 0 0 0
825 17 5 0.75 83.95385148250048 83.6282738408818 81.96235876638984 0 0 0
826 17 5 0.75 82.01428796612086 86.60948106909296 83.32859331008672 0 0 0
827 17 5 0.75 80.58015819976025 83.27432066979337 84.48448124764042 0 0 0
828 17 5 0.75 78.36637262836358 82.54779385834057 81.46994774540228 0 0 0
829 17 5 0.75 75.25646264543005 82.84111554220178 83.65135148791012 0 0 0
830 17 5 0.75 72.21820356547047 84.06550598263067 85.59710322244091 0 0 0
831 17 5 0.75 71.78328921109728 86.098135604469 88.79012159457496 0 0 0
832 17 5 0.75 70.34044350226888 87.55502089892633 85.57892532226312 0 0 0
833 17 5 0.75 71.8685558383451 84.3296236315808 84.24558922204993 0 0 0
834 17 5 0.75 73.56355468373509 86.35331638522574 86.99290546758331 0 0 0
835 17 5 0.75 72.71896003263136 83.22514462129021 88.99722612322789 0 0 0
836 17 5 0.75 71.69085576582205 81.66542149384937 85.67662898080084 0 0 0
837 17 5 0.75 70.30678977167985 79.90083710722158 88.75667821195424 0 0 0
838 17 5 0.75 72.97289584196693 77.49917190938619 90.03729630470659 0 0 0
839 17 5 0.75 74.26634364512073 75.77956230262996 86.89308963515252 0 0 0
840 17 5 0.75 70.63422874043972 75.48977168714883 85.77959840556282 0 0 0
841 17 5 0.75 70.39774968934725 71.96802431583156 87.21398786139908 0 0 0
842 17 5 0.75 73.27184878419807 73.42926025203812 85.18410019659686 0 0 0
843 17 5 0.75 75.50662762180119 70.42868192920693 84.46410486636418 0 0 0
844 17 5 0.75 73.56587179712626 73.57022138240085 83.52586358981723 0 0 0
845 17 5 0.75 73.99526168158019 77.19124437087326 82.42136513165495 0 0 0
846 17 5 0.75 72.02342629094969 74.16246318048341 81.21535945463778 0 0 0
847 17 5 0.75 74.51453562319885 76.6724970986481 79.79754281471426 0 0 0
848 17 5 0.75 73.41894456615704 73.23557800210823 81.02366163422957 0 0 0
849 17 5 0.75 71.942653042032 74.18035674746451 84.40656814463148 0 0 0
850 17 5 0.75 69.47251501891327 77.06808140221762 84.68145805909573 0 0 0
851 18 5 0.75 39.90195954133605 49.14576905440151 8.610028477519855 0 0 0
852 18 5 0.75 41.00925230436418 51.30327384828989 11.548595441414705 0 0 0
853 18 5 0.75 44.60199127734145 50.52947718418463 12.55336675602804 0 0 0
854 18 5 0.75 42.32050596021484 48.41301441943148 14.751436389399357 0 0 0
855 18 5 0.75 44.6449751798106 47.28685312101969 11.95059659085476 0 0 0
856 18 5 0.75 48.11602569337417 48.73842073371404 12.551312661945698 0 0 0
857 18 5 0.75 47.39554201418928 45.225550872250274 13.838460129972484 0 0 0
858 18 5 0.75 45.362238067324135 42.00807154799926 13.666408225944009 0 0 0
859 18 5 0.75 43.732038476216765 38.72631477524401 12.623037832637563 0 0 0
860 18 5 0.75 40.34760931885411 37.04580884401128 12.13555542897039 0 0 0
861 18 5 0.75 42.122827099520876 38.35361026756842 15.242701590280877 0 0 0
862 18 5 0.75 41.10258342114409 34.83505034951971 14.196308289541022 0 0 0
863 18 5 0.75 41.89485963598391 32.30376813074156 16.931451563356244 0 0 0
864 18 5 0.75 45.55388819129601 31.291267999115686 16.611367957296455 0 0 0
865 18 5 0.75 48.24255319377947 28.59616552237089 16.765001105622893 0 0 0
866 18 5 0.75 49.73763119072472 26.13357300032529 19.258288063318552 0 0 0
867 18 5 0.75 47.676069880623004 23.695866017143924 21.337626811296026 0 0 0
868 18 5 0.75 45.85207865935999 24.922179862111932 18.225503680956347 0 0 0
869 18 5 0.75 44.00526798584796 23.895981255790165 15.05496638318089 0 0 0
870 18 5 0.75 47.132979622253224 23.447588251067252 12.92600803863522 0 0 0
871 18 5 0.75 44.66401006536295 21.732035033346683 10.585673343699973 0 0 0
872 18 5 0.75 46.73023698908875 20.767597225179934 13.637994757615802 0 0 0
873 18 5 0.75 49.88095162851487 18.668465189117786 13.210511475973702 0 0 0
874 18 5 0.75 53.5159941490167 19.78737940348678 13.435448922893366 0 0 0
875 18 5 0.75 50.44079664288221 21.741839914339284 12.32219045794356 0 0 0
876 18 5 0.75 46.68202525834436 21.739121132976024 12.94487038134505 0 0 0
877 18 5 0.75 49.20768025032953 24.591395550033212 12.903669516530757 0 0 0
878 18 5 0.75 47.28997544284694 26.032734708696704 9.94376247389219 0 0 0
879 18 5 0.75 45.342610408565776 23.35991056990809 11.8358196998682 0 0 0
880 18 5 0.75 42.86673629238559 26.124633549364106 12.6974775250499 0 0 0
881 18 5 0.75 44.75655825898941 29.431112002286852 12.588513425919626 0 0 0
882 18 5 0.75 46.58417704217691 26.344969778558493 11.303353607740888 0 0 0
883 18 5 0.75 43.4522037020334 27.300348600397545 9.355510106991469 0 0 0
884 18 5 0.75 43.45210137782172 23.67812647594406 10.536868168990225 0 0 0
885 18 5 0.75 46.90530726711974 23.076927858603597 12.030196434518409 0 0 0
886 18 5 0.75 44.021952389258054 25.10507317214563 10.58486213565578 0 0 0
887 18 5 0.75 41.75395815971388 22.751332655995494 12.542464689134816 0 0 0
888 18 5 0.75 40.95247209506031 26.47591148769188 12.577573301259088 0 0 0
889 18 5 0.75 43.87274131129574 26.956817456240522 14.976918452362195 0 0 0
890 18 5 0.75 47.42581945510728 28.307454558126654 15.236755176051098 0 0 0
891 18 5 0.75 50.875694868774765 29.28897582580372 16.521697054608335 0 0 0
892 18 5 0.75 49.708223163316745 26.62468110508684 18.98231556590079 0 0 0
893 18 5 0.75 49.32965988570511 29.978138905596616 17.21395173878713 0 0 0
894 18 5 0.75 45.80579609085202 31.410351238063026 16.996576970116298 0 0 0
895 18 5 0.75 46.703922844725305 32.73911170427579 20.452566547271744 0 0 0
896 18 5 0.75 44.05147928888285 33.39877493758871 17.798232807576415 0 0 0
897 18 5 0.75 42.785086856863735 33.829008591535676 14.230705763371123 0 0 0
898 18 5 0.75 45.465145986227895 31.669491781906665 12.596732014487266 0 0 0
899 18 5 0.75 48.170578298887506 29.05059867754038 12.015238326198222 0 0 0
900 18 5 0.75 47.79989614530804 32.84251188699676 12.024669814305026 0 0 0
901 19 5 0.75 19.952245109550933 40.23141925766022 35.253925583108916 0 0 0
902 19 5 0.75 23.46273592436652 40.92481315781903 33.945583449598736 0 0 0
903 19 5 0.75 23.677271436837643 37.683746379115384 31.9542118996683 0 0 0
904 19 5 0.75 25.740361863811874 36.58309294196788 28.94616936316343 0 0 0
905 19 5 0.75 29.175759647731162 35.08689769621206 29.635764790077022 0 0 0
906 19 5 0.75 27.414765873811085 34.779002460356125 26.271214084269197 0 0 0
907 19 5 0.75 28.388517167980247 36.267777736941696 29.640406360309765 0 0 0
908 19 5 0.75 29.634074134862168 33.8242894826833 32.285033553990026 0 0 0
909 19 5 0.75 32.199142182308165 36.05261203962235 34.00872276443609 0 0 0
910 19 5 0.75 33.30797082209857 32.86584227337884 35.77821351166728 0 0 0
911 19 5 0.75 32.91001926150198 30.687765591013022 38.87881289261817 0 0 0
912 19 5 0.75 31.402206139981494 33.770976533031345 37.22460314848379 0 0 0
913 19 5 0.75 28.62346224494128 31.171955813914074 37.424036514237585 0 0 0
914 19 5 0.75 30.44669265474042 34.40057720420027 36.54771762766142 0 0 0
915 19 5 0.75 29.71887352864335 37.46744462983402 34.407459812987234 0 0 0
916 19 5 0.75 29.75717658258463 41.08280433211257 35.60904505723714 0 0 0
917 19 5 0.75 27.491029314779166 38.14478094847194 34.743773332402306 0 0 0
918 19 5 0.75 28.462648218433397 39.44791816818589 31.297922190426213 0 0 0
919 19 5 0.75 28.406243596847013 38.46882553084007 27.616306223739997 0 0 0
920 19 5 0.75 25.838925353212904 40.5330089033519 25.70211604495703 0 0 0
921 19 5 0.75 22.641952793752864 42.6024585068223 25.815450914947434 0 0 0
922 19 5 0.75 23.256733458427416 38.84259394498739 25.854988378198243 0 0 0
923 19 5 0.75 24.429498465232793 36.08766272930113 28.211060583299393 0 0 0
924 19 5 0.75 20.636010289763803 36.29997194708705 28.494736910510696 0 0 0
925 19 5 0.75 18.98772519663113 39.28731140891422 26.799136960178437 0 0 0
926 19 5 0.75 16.922627918571283 36.54623030378714 28.4538114318692 0 0 0
927 19 5 0.75 15.430989213058528 33.856751097240725 30.70277020645149 0 0 0
928 19 5 0.75 13.382874909901425 35.13533868524296 33.65006414852953 0 0 0
929 19 5 0.75 16.980667889077836 35.76808736236081 34.73247571101144 0 0 0
930 19 5 0.75 16.64267976192899 35.91910292383659 38.524448591465436 0 0 0
931 19 5 0.75 15.884335779959088 33.651979607004264 41.49112455477609 0 0 0
932 19 5 0.75 17.78530211744107 36.95202067141787 41.38087049841417 0 0 0
933 19 5 0.75 17.179323601517453 40.61049753190884 40.50654956220645 0 0 0
934 19 5 0.75 15.05621256865371 43.37265177757024 42.04895141169541 0 0 0
935 19 5 0.75 16.441142263362092 41.67153656227195 38.933782593638256 0 0 0
936 19 5 0.75 20.063338262946544 42.37732025336421 37.98633047242971 0 0 0
937 19 5 0.75 17.83894440354948 41.321345957324674 40.89375033278363 0 0 0
938 19 5 0.75 17.60935500637238 38.584434293975036 43.53433800520138 0 0 0
939 19 5 0.75 17.838966821367904 41.17623929095278 46.317488247652484 0 0 0
940 19 5 0.75 21.402306797378984 40.109451560721524 47.14251682533293 0 0 0
941 19 5 0.75 21.111537219410433 37.411735363525445 44.46784294391974 0 0 0
942 19 5 0.75 23.6449346141565 35.018374313424516 46.007265083605155 0 0 0
943 19 5 0.75 26.247691475707946 35.41326920108333 48.761500866421834 0 0 0
944 19 5 0.75 25.22422031342149 38.6049615568744 46.949952720235025 0 0 0
945 19 5 0.75 28.013872101566097 36.39068777166896 48.303073005004116 0 0 0
946 19 5 0.75 30.65705914303734 36.33946243100744 45.55952817608795 0 0 0
947 19 5 0.75 28.03040650501367 35.989238143835664 48.297070663034646 0 0 0
948 19 5 0.75 27.852998837363828 33.28336473173298 45.620715754369726 0 0 0
949 19 5 0.75 29.763126180560874 32.124546274232564 48.706919460434406 0 0 0
950 19 5 0.75 29.461725226684774 35.665358895219995 47.33290947209419 0 0 0
951 20 5 0.75 80.32175993061972 101.57175220211897 74.74134863087936 0 0 0
952 20 5 0.75 78.4858732838626 98.83009840842321 76.64633017823685 0 0 0
953 20 5 0.75 78.49032845237828 102.62014096269543 77.03576257067391 0 0 0
954 20 5 0.75 75.60163546317366 104.01459873464464 74.97978583530684 0 0 0
955 20 5 0.75 73.65826380914952 0.11999153700885756 76.30639073219506 0 1 0
956 20 5 0.75 70.07251938125505 105.72443042681743 76.25346688714266 0 0 0
957 20 5 0.75 69.37272981743338 102.69497564607371 74.05146818192159 0 0 0
958 20 5 0.75 66.61115701931983 102.35166917198717 71.44916990048466 0 0 0
959 20 5 0.75 69.97014249843102 100.90116063915613 70.38646507443718 0 0 0
960 20 5 0.75 68.39564362399769 99.16917191875855 67.38026009692422 0 0 0
961 20 5 0.75 65.7388486979551 100.29953831118671 64.8943372220499 0 0 0
962 20 5 0.75 62.5346778819512 99.99851823034894 66.93364501951483 0 0 0
963 20 5 0.75 59.31692183344466 99.17080399726655 65.06896403858204 0 0 0
964 20 5 0.75 61.32350213408587 102.24091029648767 66.10055640408373 0 0 0
965 20 5 0.75 59.84822179201076 101.65341392296163 62.63724932509398 0 0 0
966 20 5 0.75 62.57355210347775 101.01581748936054 65.22223394424715 0 0 0
967 20 5 0.75 63.464653341813865 102.5641344519503 61.85700688409316 0 0 0
968 20 5 0.75 62.63914940374432 98.95650377999806 62.76234890952951 0 0 0
969 20 5 0.75 65.29979913250713 101.07810541732769 61.048916823535265 0 0 0
970 20 5 0.75 68.55542791045535 101.07979727908038 63.02805259396618 0 0 0
971 20 5 0.75 65.26974282867624 102.81797237678356 62.1919181113028 0 0 0
972 20 5 0.75 62.48919841509288 101.60033924316556 64.49453451791636 0 0 0
973 20 5 0.75 63.92579634064708 99.17517952671047 61.931160423099776 0 0 0
974 20 5 0.75 61.959512160542836 100.5741664132509 58.98282831589752 0 0 0
975 20 5 0.75 65.24526933896836 98.77885892745606 59.687648006225594 0 0 0
976 20 5 0.75 68.90472776043973 98.57950401642242 60.72914773304697 0 0 0
977 20 5 0.75 67.1540463738234 98.79123941830099 57.35181405066578 0 0 0
978 20 5 0.75 69.2853971056885 96.62895440827104 55.05008261690164 0 0 0
979 20 5 0.75 72.54556401596348 98.56337686898142 55.431424275584895 0 0 0
980 20 5 0.75 69.71827293488452 100.65623982044693 56.89513524747604 0 0 0
981 20 5 0.75 70.14526793019002 100.66785889365181 53.10915581394475 0 0 0
982 20 5 0.75 73.87436771504738 99.95234569488494 53.422134498469966 0 0 0
983 20 5 0.75 77.21752992046824 99.48593884053668 51.6552640690206 0 0 0
984 20 5 0.75 79.51449076639267 102.42186108044804 52.442938794706286 0 0 0
985 20 5 0.75 82.3934341780121 103.2557319093105 50.09082394345745 0 0 0
986 20 5 0.75 83.39081891788298 106.63564112303811 48.642536200074986 0 0 0
987 20 5 0.75 83.08062369647396 2.2654899465975546 45.80277786658795 0 1 0
988 20 5 0.75 84.69395688583273 1.7492332115572964 49.21550917796291 0 1 0
989 20 5 0.75 83.63102081280199 2.8184075545932217 52.71452805885562 0 1 0
990 20 5 0.75 80.5055257077974 2.782709093291828 54.89308399535417 0 1 0
991 20 5 0.75 81.9806483180504 1.6687622172945993 58.224635532127444 0 1 0
992 20 5 0.75 82.007248214253 105.63709631150498 60.66846217519105 0 0 0
993 20 5 0.75 81.96145570880401 105.6975337617296 64.4777075546665 0 0 0
994 20 5 0.75 80.58139434205629 1.7923578543604748 62.5554086824494 0 1 0
995 20 5 0.75 77.91666582722262 3.7485205199414366 64.44980820948152 0 1 0
996 20 5 0.75 74.35632101012985 3.2681602961375376 65.71838963721397 0 1 0
997 20 5 0.75 74.85427077652619 3.9755744340099852 62.007902975375124 0 1 0
998 20 5 0.75 76.7323826613008 0.6607676957351032 62.03709263374671 0 1 0
999 20 5 0.75 76.90475613920837 104.01593960401827 60.62892264907672 0 0 0
1000 20 5 0.75 77.67549167331674 103.51028411575189 64.3257292796227 0 0 0
1001 21 5 0.75 70.59457913098134 51.735472842167134 83.61980488411096 0 0 0
1002 21 5 0.75 73.42712980501256 49.280702205585456 84.30307481673039 0 0 0
1003 21 5 0.75 73.73837446002935 48.547419654379475 80.57728316060945 0 0 0
1004 21 5 0.75 72.8766583717099 45.36642534944158 78.66552464681016 0 0 0
1005 21 5 0.75 73.65240847969824 44.709825614094775 82.33747080075885 0 0 0
1006 21 5 0.75 72.88167098487091 43.61249826143199 78.7712492155001 0 0 0
1007 21 5 0.75 75.3856497283329 45.513527182957006 76.61897611670062 0 0 0
1008 21 5 0.75 74.40928350183957 43.4664419810057 73.55756285356297 0 0 0
1009 21 5 0.75 74.38294391994026 47.22523548570424 72.93556798584987 0 0 0
1010 21 5 0.75 72.87973442243883 48.88260337886279 76.01933076423421 0 0 0
1011 21 5 0.75 70.09528650361368 51.43760567831231 75.53465248211506 0 0 0
1012 21 5 0.75 73.06256858158521 51.64434923072185 73.15377151631984 0 0 0
1013 21 5 0.75 70.00637138535029 51.64265887093396 70.8787427603676 0 0 0
1014 21 5 0.75 68.07004481195848 49.09301061165542 72.94418052392638 0 0 0
1015 21 5 0.75 66.16854137259816 50.87590885558897 75.72296776333128 0 0 0
1016 21 5 0.75 63.315467711013795 49.56441026916981 77.88075416133137 0 0 0
1017 21 5 0.75 63.538798100374265 53.23437766321843 76.88197347278755 0 0 0
1018 21 5 0.75 64.48734796121266 56.866138096347456 77.53517276692523 0 0 0
1019 21 5 0.75 62.2350545782048 59.931806159309495 77.74719598403495 0 0 0
1020 21 5 0.75 65.6263792067634 58.299082451284754 78.33815330650911 0 0 0
1021 21 5 0.75 68.26408733190273 60.66801519402085 79.73341439568449 0 0 0
1022 21 5 0.75 65.53739338974582 58.731065939616364 77.90873148304824 0 0 0
1023 21 5 0.75 67.08774379344425 60.55545412371195 80.87253332856433 0 0 0
1024 21 5 0.75 67.48714841125674 64.32068176129319 80.448697524904 0 0 0
1025 21 5 0.75 67.9286422633594 60.53706543152754 80.3750045965711 0 0 0
1026 21 5 0.75 68.11347803715891 59.469337232504856 76.72234909273068 0 0 0
1027 21 5 0.75 70.64403648063671 62.28919964533969 76.32141276758102 0 0 0
1028 21 5 0.75 72.49679513940842 59.58265962361383 78.25997575679304 0 0 0
1029 21 5 0.75 73.68459232126062 60.49406060845527 81.76348629618265 0 0 0
1030 21 5 0.75 70.03840229666704 59.5518811277141 82.34115067159851 0 0 0
1031 21 5 0.75 68.92859601728233 61.61109093435503 85.34848919502285 0 0 0
1032 21 5 0.75 70.18363105828767 65.20831199101299 85.31706125545769 0 0 0
1033 21 5 0.75 71.26978975928124 67.80733126452611 82.75162599177175 0 0 0
1034 21 5 0.75 69.0842585087752 70.5773310235482 81.31403965068502 0 0 0
1035 21 5 0.75 67.36299379129726 70.85329530077347 84.70184004180328 0 0 0
1036 21 5 0.75 70.25718559355066 69.96693525407086 87.01573711803172 0 0 0
1037 21 5 0.75 67.71284060645146 67.21144631438058 87.6863258816326 0 0 0
1038 21 5 0.75 66.13370333482355 69.9601852438817 89.79982056456905 0 0 0
1039 21 5 0.75 65.86467506712621 66.43973890758032 91.23166601167638 0 0 0
1040 21 5 0.75 65.10594795064932 70.09101224778043 90.45151464311601 0 0 0
1041 21 5 0.75 68.0255336459487 71.16476996550041 92.65132457386912 0 0 0
1042 21 5 0.75 69.37473245842136 67.9403175874062 91.13518822583674 0 0 0
1043 21 5 0.75 71.9949512117569 70.47526170130071 92.2418101233701 0 0 0
1044 21 5 0.75 68.43553401153855 70.14483595440167 90.92367962126647 0 0 0
1045 21 5 0.75 69.73994644501806 70.01462093031043 94.50106026230608 0 0 0
1046 21 5 0.75 70.89753461887672 72.19024102283738 91.59541630050767 0 0 0
1047 21 5 0.75 67.33351232509736 72.15277808027733 90.24914678165995 0 0 0
1048 21 5 0.75 69.92357511961092 74.53597342537378 88.7903614418696 0 0 0
1049 21 5 0.75 72.02060173066884 75.92961145213305 91.64979363076401 0 0 0
1050 21 5 0.75 71.51925979895319 74.54741682746243 95.16466123666828 0 0 0
1051 22 5 0.75 67.52240119909222 103.24890151717052 20.30447157272576 0 0 0
1052 22 5 0.75 64.96051059273589 103.84668667983978 17.548483651787844 0 0 0
1053 22 5 0.75 64.76968991157274 105.87410098757952 14.328347211757299 0 0 0
1054 22 5 0.75 62.386238722555106 1.302695501902761 12.469894458895773 0 1 0
1055 22 5 0.75 63.50648999655217 4.030612512922943 10.057508531210338 0 1 0
1056 22 5 0.75 66.72368848046253 1.9902951389793628 10.11079012943032 0 1 0
1057 22 5 0.75 63.158404778300515 1.9934185832232885 8.76734591131258 0 1 0
1058 22 5 0.75 65.15215326047917 1.5974897329288638 5.544876774871575 0 1 0
1059 22 5 0.75 62.04399027122595 3.7939375250630007 5.721058296790296 0 1 0
1060 22 5 0.75 60.78178703695525 4.504995131200502 9.244882934332662 0 1 0
1061 22 5 0.75 60.544902605459086 3.876713051493766 5.494516632965006 0 1 0
1062 22 5 0.75 57.90488795606109 6.499287911840696 4.676883614526869 0 1 0
1063 22 5 0.75 57.54175348808014 5.020567461985365 1.184374603895137 0 1 0
1064 22 5 0.75 55.752031155157155 8.118475576743762 106.76562124531304 0 1 -1
1065 22 5 0.75 54.15271388039761 6.7510182537982075 3.050643785565541 0 1 0
1066 22 5 0.75 54.01738196748601 9.164347320419395 5.995746175899189 0 1 0
1067 22 5 0.75 51.79201442690311 12.230821822638347 5.595030021294674 0 1 0
1068 22 5 0.75 54.392807939462216 12.169136770836545 8.3785831570215 0 1 0
1069 22 5 0.75 55.94288572216272 13.850152422296276 5.331035741947255 0 1 0
1070 22 5 0.75 56.14863897171073 17.59442829573095 6.004952490452209 0 1 0
1071 22 5 0.75 58.082397944634685 20.76063244120465 6.872032385168542 0 1 0
1072 22 5 0.75 59.0662901673585 19.010271477298545 10.109978121294656 0 1 0
1073 22 5 0.75 55.82646877081311 17.48749086346652 8.805832224309185 0 1 0
1074 22 5 0.75 58.597008011372296 15.910782646215878 6.719159390783043 0 1 0
1075 22 5 0.75 56.579300230701136 18.872676958351022 5.426047873720217 0 1 0
1076 22 5 0.75 54.161130824745435 15.94373862246448 5.126253029411566 0 1 0
1077 22 5 0.75 51.872845471047015 18.960610148800143 5.548551897080486 0 1 0
1078 22 5 0.75 50.36666887614575 17.543979159163825 8.748659505298322 0 1 0
1079 22 5 0.75 53.149200187927576 15.207249303712942 9.894658231998395 0 1 0
1080 22 5 0.75 54.1163223246812 15.69528595185308 6.241906529148441 0 1 0
1081 22 5 0.75 54.91680323293168 15.100686342204838 2.5647090066141054 0 1 0
1082 22 5 0.75 55.315251309761024 18.773738710703313 3.4953138789088505 0 1 0
1083 22 5 0.75 58.30970554220528 19.567048138386426 1.2772056755639865 0 1 0
1084 22 5 0.75 61.52768767253674 20.02569674946926 106.18085427814161 0 1 -1
1085 22 5 0.75 63.43411832868739 17.086633617860457 104.68301247684654 0 1 -1
1086 22 5 0.75 66.17083115675057 16.524101435873206 0.38219798095318147 0 1 0
1087 22 5 0.75 68.87386428832103 15.706212463184343 2.9396907997087562 0 1 0
1088 22 5 0.75 69.80181261096352 18.775602966827066 4.997323868711316 0 1 0
1089 22 5 0.75 69.32707930176271 22.35051226302673 3.7681974272576673 0 1 0
1090 22 5 0.75 72.35538016658481 23.96099680439363 2.1093323290245527 0 1 0
1091 22 5 0.75 75.79470774930132 25.45259329178748 2.7892335700586646 0 1 0
1092 22 5 0.75 76.42739067417052 28.75766487341747 4.575938402111481 0 1 0
1093 22 5 0.75 76.36630632202188 27.9073391312551 0.8625417313882178 0 1 0
1094 22 5 0.75 72.94971768882233 28.7437168516295 106.28966689819103 0 1 -1
1095 22 5 0.75 73.69178736273781 25.66537075030169 104.17088944893055 0 1 -1
1096 22 5 0.75 74.42827619704944 23.750804998898104 100.9602630021936 0 1 -1
1097 22 5 0.75 73.7672811227987 24.054456364034507 104.70018029543246 0 1 -1
1098 22 5 0.75 70.61421353067263 22.62956827659309 103.1052010799717 0 1 -1
1099 22 5 0.75 68.44053547882214 19.908906324017693 104.65091200595758 0 1 -1
1100 22 5 0.75 67.64299823872706 20.481151907041465 100.96953056098732 0 1 -1
1101 23 5 0.75 72.12881320585014 41.390456071573226 2.9363517496303015 0 0 0
1102 23 5 0.75 73.92270212014827 38.47990868615565 4.617653769018001 0 0 0
1103 23 5 0.75 70.98399828541082 39.80170194739086 2.584679999818668 0 0 0
1104 23 5 0.75 71.0487695745457 36.47291935251911 0.7323541331897148 0 0 0
1105 23 5 0.75 72.26394018004906 37.74484638462709 4.111949082960114 0 0 0
1106 23 5 0.75 74.06409667212993 38.061578900469684 7.454884487275773 0 0 0
1107 23 5 0.75 71.3277041622934 36.71826648577233 9.740440828438786 0 0 0
1108 23 5 0.75 68.68663286958066 34.930366442251554 11.824728683123697 0 0 0
1109 23 5 0.75 66.61933701244118 38.12410457422491 11.618756395101112 0 0 0
1110 23 5 0.75 69.20285272984668 35.38767432838568 12.2133117311086 0 0 0
1111 23 5 0.75 65.8250646584458 35.84290224006182 13.916078683199485 0 0 0
1112 23 5 0.75 65.31962502221928 32.89403281966195 16.275061496948197 0 0 0
1113 23 5 0.75 68.74572123706213 34.55564869342362 16.144687363383134 0 0 0
1114 23 5 0.75 66.481925851987 31.691970457281293 17.2358690230335 0 0 0
1115 23 5 0.75 63.0445621242514 33.16299008711887 17.968488877992485 0 0 0
1116 23 5 0.75 66.64848082345193 34.31950603603514 18.404769601214404 0 0 0
1117 23 5 0.75 63.59847853103867 35.564462866454065 16.490698414798626 0 0 0
1118 23 5 0.75 66.38165791089543 37.231921657678164 18.488095150329567 0 0 0
1119 23 5 0.75 68.31723087709567 36.30164970863207 15.340993087584735 0 0 0
1120 23 5 0.75 71.43827843420385 34.1291619199775 15.576490336859134 0 0 0
1121 23 5 0.75 69.79328941928559 31.223440704779357 17.411400514591456 0 0 0
1122 23 5 0.75 72.9794282003259 29.208119880091157 16.86085383943208 0 0 0
1123 23 5 0.75 71.13839019161715 25.92028558531646 17.423725672617145 0 0 0
1124 23 5 0.75 72.21539356188244 22.27416472067916 17.672656146632978 0 0 0
1125 23 5 0.75 72.98949836658758 19.920947652636602 20.567346316928514 0 0 0
1126 23 5 0.75 69.92482666900034 18.45694216349639 22.293780594210748 0 0 0
1127 23 5 0.75 72.318993592147 18.69531794323519 25.247971131692108 0 0 0
1128 23 5 0.75 73.83665433666657 18.490721989837226 28.736659475525283 0 0 0
1129 23 5 0.75 71.91487586744273 20.89784905431427 26.49420394403981 0 0 0
1130 23 5 0.75 68.22611481120212 21.07199489477141 27.431655327426757 0 0 0
1131 23 5 0.75 71.36757762480599 19.212673549158637 28.522634486023637 0 0 0
1132 23 5 0.75 67.9472910320776 20.772475810720923 27.90234702973618 0 0 0
1133 23 5 0.75 67.85157376609257 23.979147347405647 29.957631890967924 0 0 0
1134 23 5 0.75 71.30198583541551 25.561739159201412 29.631810300051082 0 0 0
1135 23 5 0.75 69.62304288741824 27.134227544040563 32.66900157768182 0 0 0
1136 23 5 0.75 72.09754469100561 29.69855685057301 31.32098227822738 0 0 0
1137 23 5 0.75 69.74841017163698 28.354386129048333 34.00256242457888 0 0 0
1138 23 5 0.75 72.5830612469468 30.540816940850256 35.30654616161246 0 0 0
1139 23 5 0.75 70.17207775318104 31.621129468483577 32.56133516144734 0 0 0
1140 23 5 0.75 71.60320505591547 29.98644507351835 29.431513829130548 0 0 0
1141 23 5 0.75 71.92226940844171 31.811780559302754 32.760544964954185 0 0 0
1142 23 5 0.75 75.28713071071047 30.15565250492165 32.08894368146373 0 0 0
1143 23 5 0.75 77.35914760065816 30.8745892607683 35.20438521499701 0 0 0
1144 23 5 0.75 74.85303734146879 31.235271462108464 38.05138709740282 0 0 0
1145 23 5 0.75 75.59943546907999 28.434215234559858 35.578923984389874 0 0 0
1146 23 5 0.75 73.99774263229834 25.388446824467046 33.94369468894441 0 0 0
1147 23 5 0.75 72.2530742540624 24.844232669761137 30.600632738605874 0 0 0
1148 23 5 0.75 73.2968731059561 22.752597512950476 33.6092281463633 0 0 0
1149 23 5 0.75 71.54498068747722 23.763755202926433 36.83793269773971 0 0 0
1150 23 5 0.75 74.3696439906445 26.225147232483284 37.52997785564064 0 0 0
1151 24 5 0.75 94.14180702721967 9.67631046178322 102.75890851450116 0 0 0
1152 24 5 0.75 96.2645229528576 12.53054020811978 101.39378959873937 0 0 0
1153 24 5 0.75 93.15774320846324 13.732047930792186 99.54435757452777 0 0 0
1154 24 5 0.75 91.85743168321655 14.92994364462921 102.91931472923085 0 0 0
1155 24 5 0.75 88.22495665575832 13.997400838270465 103.59131851582801 0 0 0
1156 24 5 0.75 87.4264479435996 17.71981874022567 103.44269550344417 0 0 0
1157 24 5 0.75 90.08902446608029 14.999360406574205 103.28178336343929 0 0 0
1158 24 5 0.75 90.03635262014134 11.236153454014119 103.87474129520916 0 0 0
1159 24 5 0.75 89.59940981548984 9.79644633133045 0.4838946872345531 0 0 1
1160 24 5 0.75 90.80508130148291 10.32581486598631 103.79986381866232 0 0 0
1161 24 5 0.75 87.30528969897684 8.838549305864063 104.03566011359125 0 0 0
1162 24 5 0.75 89.90421095349284 9.59914922504687 106.71580863107383 0 0 0
1163 24 5 0.75 88.98913884363913 10.420704955632228 103.10973192427595 0 0 0
1164 24 5 0.75 87.85234191730507 13.025904946885623 100.57266161507071 0 0 0
1165 24 5 0.75 85.1440584465387 10.480174336541205 99.73566920081053 0 0 0
1166 24 5 0.75 84.54883374846058 12.671367321456376 102.79515949523154 0 0 0
1167 24 5 0.75 82.69143763928288 10.748561083966242 100.08057004806268 0 0 0
1168 24 5 0.75 79.7348813374793 11.174659495909289 102.44558907073566 0 0 0
1169 24 5 0.75 78.22677363144382 8.930474771767333 99.761311501086 0 0 0
1170 24 5 0.75 74.94605364027544 6.993216847542146 99.76415308071746 0 0 0
1171 24 5 0.75 78.65623273989672 7.832113863125036 99.98076989903836 0 0 0
1172 24 5 0.75 78.3264846774426 8.670840950193249 103.68264821804425 0 0 0
1173 24 5 0.75 78.94180662859799 11.922090103620981 105.57126089373024 0 0 0
1174 24 5 0.75 82.72924711818278 12.077902977888805 105.95481908496872 0 0 0
1175 24 5 0.75 81.96560521856173 15.771784042952616 106.49165586305513 0 0 0
1176 24 5 0.75 80.78529006414303 19.03921729565961 1.164699510393774 0 0 1
1177 24 5 0.75 77.18494892097904 20.275331327494726 1.3249048571866098 0 0 1
1178 24 5 0.75 77.31386788099978 22.92730022886797 105.48360060725375 0 0 0
1179 24 5 0.75 76.3089157741265 24.754372965966017 102.2948741410538 0 0 0
1180 24 5 0.75 77.26903401168106 28.430143002276093 102.5829498430492 0 0 0
1181 24 5 0.75 75.99938766889302 31.28245394069178 100.3992785136502 0 0 0
1182 24 5 0.75 74.02543430237145 28.175493464940544 99.4162196604182 0 0 0
1183 24 5 0.75 71.28147012806512 26.645306649220487 97.26092642767239 0 0 0
1184 24 5 0.75 73.91914041839145 28.624873505461057 99.16883378947057 0 0 0
1185 24 5 0.75 76.81998137621397 29.92307476597518 97.06743063333444 0 0 0
1186 24 5 0.75 73.52974938118463 29.285132547833193 98.87947454703998 0 0 0
1187 24 5 0.75 72.57235029500983 26.330566242640693 96.67266124772968 0 0 0
1188 24 5 0.75 73.99594073111096 23.271589288735164 98.44244944571163 0 0 0
1189 24 5 0.75 76.13624796625109 25.756101994488926 100.38213538785664 0 0 0
1190 24 5 0.75 72.33776743878062 25.467779583448948 100.44933560898527 0 0 0
1191 24 5 0.75 70.30535541196669 27.24292122629777 103.13899608961958 0 0 0
1192 24 5 0.75 73.3701910807362 28.318983136727216 105.13022010724318 0 0 0
1193 24 5 0.75 72.08590200048046 29.290490514456263 101.677268475182 0 0 0
1194 24 5 0.75 69.37655500164566 31.161225377362886 99.76000743072025 0 0 0
1195 24 5 0.75 66.4036932897413 31.749591503557333 102.06912382957069 0 0 0
1196 24 5 0.75 70.0306710204043 30.818342856420205 101.36633759003556 0 0 0
1197 24 5 0.75 70.44306062069936 27.078624224990072 101.9667869012208 0 0 0
1198 24 5 0.75 68.63827763289869 24.20337295821041 103.69646563434647 0 0 0
1199 24 5 0.75 68.17324724518612 20.521701999172834 102.83324741866561 0 0 0
1200 24 5 0.75 70.42183948306986 19.02690511650686 100.14521556853789 0 0 0
1201 25 5 0.75 105.4993239500989 51.10541994746127 92.78921277076383 0 0 0
1202 25 5 0.75 104.17693538952868 48.072812524104634 90.89958828143394 0 0 0
1203 25 5 0.75 0.4902074928844087 50.06551877888147 91.42554039044003 1 0 0
1204 25 5 0.75 1.144320733027456 47.875245967106636 88.37743591731751 1 0 0
1205 25 5 0.75 0.4325707736556126 48.2553290585038 84.65385580686358 1 0 0
1206 25 5 0.75 2.9294477034361535 45.396465980783375 84.3242992861018 1 0 0
1207 25 5 0.75 3.4039225097892256 49.09180078243193 85.12146574416514 1 0 0
1208 25 5 0.75 1.986750361996613 45.58933086414244 84.63113159789542 1 0 0
1209 25 5 0.75 5.077552531035138 47.48373732598306 85.80342256399696 1 0 0
1210 25 5 0.75 4.740803173815863 45.59426958306487 89.09471585370605 1 0 0
1211 25 5 0.75 7.5656335509631845 48.15012689153757 89.0312591040854 1 0 0
1212 25 5 0.75 6.312188966536368 50.95671077381422 86.78002309124356 1 0 0
1213 25 5 0.75 6.6810756260346125 48.95558395178406 90.0011275717899 1 0 0
1214 25 5 0.75 3.5002907331116404 47.018990742228766 90.80630718259567 1 0 0
1215 25 5 0.75 2.434002215006771 44.67864554865517 93.61734136436485 1 0 0
1216 25 5 0.75 5.423371824790877 42.438518576682625 92.86794128060427 1 0 0
1217 25 5 0.75 7.673890456759679 39.364263633622905 92.88285544280518 1 0 0
1218 25 5 0.75 10.218058522645762 40.406083518830506 95.52064242800915 1 0 0
1219 25 5 0.75 9.74588927945942 37.09890923151629 97.3525142682634 1 0 0
1220 25 5 0.75 6.314287250826169 36.0275096907847 96.09064639039333 1 0 0
1221 25 5 0.75 8.817051369929814 38.684302259206504 97.18322362450816 1 0 0
1222 25 5 0.75 10.657968611681213 38.12051695418886 93.89547822091187 1 0 0
1223 25 5 0.75 10.637758528933801 36.98376042370628 97.5318880084579 1 0 0
1224 25 5 0.75 11.192493423102178 33.25281034589648 96.99487710160123 1 0 0
1225 25 5 0.75 12.982464172326942 30.140833104645036 95.71906270802637 1 0 0
1226 25 5 0.75 11.921340117529141 27.590441315668542 98.34310871811284 1 0 0
1227 25 5 0.75 13.042810171469299 29.844166276241896 101.20302632535332 1 0 0
1228 25 5 0.75 12.88709413678248 26.714212084185302 103.36987640603928 1 0 0
1229 25 5 0.75 12.399621051453366 30.486713744018726 103.15377176093935 1 0 0
1230 25 5 0.75 10.948561778790562 27.931158645817806 105.57857384096127 1 0 0
1231 25 5 0.75 9.322792417284603 27.764507795933408 102.13688799280177 1 0 0
1232 25 5 0.75 6.883503476228583 27.162712119201018 99.2726583537002 1 0 0
1233 25 5 0.75 8.559860883423937 29.55131546006578 96.82306656661586 1 0 0
1234 25 5 0.75 6.5377915389891115 31.901958357332692 94.60906260640587 1 0 0
1235 25 5 0.75 8.448058641493219 32.613300627091746 97.82790894824088 1 0 0
1236 25 5 0.75 8.57152254340727 30.14681476264303 94.92664988614408 1 0 0
1237 25 5 0.75 11.697778404488432 28.43806375350876 96.27675887427736 1 0 0
1238 25 5 0.75 11.811660114027475 32.15614906612126 95.45276095900836 1 0 0
1239 25 5 0.75 8.502880937183477 33.480634184922856 96.79954213238311 1 0 0
1240 25 5 0.75 10.252090539402843 35.59601154423842 94.15728090472247 1 0 0
1241 25 5 0.75 13.247781403250016 35.68052721326329 96.50989505709677 1 0 0
1242 25 5 0.75 15.20233603309947 36.25665694568777 99.72919478379985 1 0 0
1243 25 5 0.75 16.301939185884876 32.646190099364254 99.2081361901819 1 0 0
1244 25 5 0.75 19.889674428958827 33.784276732942395 99.79891080039792 1 0 0
1245 25 5 0.75 19.71616399185757 37.175532830360524 98.0710866745271 1 0 0
1246 25 5 0.75 16.15534179004331 38.442424466302654 98.55236708119931 1 0 0
1247 25 5 0.75 14.744999179146518 40.08371903143744 95.41657597362408 1 0 0
1248 25 5 0.75 12.494822344251318 40.03273403004261 92.34245744283614 1 0 0
1249 25 5 0.75 13.752359825807304 43.576406515899926 92.95652974758505 1 0 0
1250 25 5 0.75 15.892391805653148 45.405246684286695 95.52396168703974 1 0 0
1251 26 5 0.75 30.287036350419093 21.555270997637194 67.96190277176369 0 0 0
1252 26 5 0.75 27.1606898039326 22.307902476123196 70.00533202888613 0 0 0
1253 26 5 0.75 27.53176237946225 18.68670626346802 68.88045731002114 0 0 0
1254 26 5 0.75 26.132745004474888 16.033520666853878 71.22980968342168 0 0 0
1255 26 5 0.75 23.913186813871 17.241830982385167 74.08106337608108 0 0 0
1256 26 5 0.75 21.387055515953957 18.341453307238176 71.44941153581632 0 0 0
1257 26 5 0.75 20.79042719946708 20.174291876925064 68.16294878242414 0 0 0
1258 26 5 0.75 17.013699491355275 19.768452507753025 67.86676940230019 0 0 0
1259 26 5 0.75 15.627932590654954 21.404634848657256 64.71737939084773 0 0 0
1260 26 5 0.75 15.133003691024166 20.02774919716711 61.19952048420709 0 0 0
1261 26 5 0.75 11.740998026918735 18.296683972693874 61.082001280261075 0 0 0
1262 26 5 0.75 9.134158493556992 18.74108006944494 58.33919254531531 0 0 0
1263 26 5 0.75 7.570273121965852 22.03082504457884 57.22207995336027 0 0 0
1264 26 5 0.75 7.258840500175738 24.1255304092968 60.38930573582459 0 0 0
1265 26 5 0.75 3.5917625584309203 23.603084369454677 61.28132003202274 0 0 0
1266 26 5 0.75 1.4887290969529117 20.570127736168487 62.22711299060783 0 0 0
1267 26 5 0.75 0.40563870237184996 17.114501900248484 61.04319353418842 0 0 0
1268 26 5 0.75 4.120866578806295 17.76162384801192 60.50059330299858 0 0 0
1269 26 5 0.75 1.6421943110436086 20.324731825651575 59.157923841074265 0 0 0
1270 26 5 0.75 106.31954947692199 23.296320295529597 58.27209975464664 -1 0 0
1271 26 5 0.75 1.8440521165252606 21.587221933090532 60.671995105294194 0 0 0
1272 26 5 0.75 105.41352931848446 20.52858704497596 62.20874387595817 -1 0 0
1273 26 5 0.75 103.44101676981309 22.364302781303742 59.51515111150165 -1 0 0
1274 26 5 0.75 103.2588726451869 25.16190157054963 62.095144237902204 -1 0 0
1275 26 5 0.75 106.59457613435463 25.943957812432792 60.4285398256658 -1 0 0
1276 26 5 0.75 104.95084876542437 26.45668617079847 63.82727046623696 -1 0 0
1277 26 5 0.75 105.39502725172754 29.666951135235777 61.82402202173195 -1 0 0
1278 26 5 0.75 105.1236363411493 26.47335770429698 63.8839754123503 -1 0 0
1279 26 5 0.75 104.57786101862749 30.23892737298584 64.08073508193907 -1 0 0
1280 26 5 0.75 104.92830435176062 27.721600346896263 61.24236334554132 -1 0 0
1281 26 5 0.75 0.8035449557217214 25.93403903764871 63.15745343694241 0 0 0
1282 26 5 0.75 4.3136383227422685 27.22159135319746 63.890633898713865 0 0 0
1283 26 5 0.75 5.046799023128484 23.749968019360793 65.2785844797397 0 0 0
1284 26 5 0.75 2.1938107455013895 21.82525719097708 63.64394503483913 0 0 0
1285 26 5 0.75 2.092783500911971 24.07887793425585 66.71430120983159 0 0 0
1286 26 5 0.75 3.110993847369572 23.50013075812591 70.33982177886554 0 0 0
1287 26 5 0.75 3.6665309525871295 19.917363114122505 71.51082755759116 0 0 0
1288 26 5 0.75 5.523623980372555 22.244661626006387 73.88800805615112 0 0 0
1289 26 5 0.75 6.37583971169114 22.70967752113138 70.20377291645465 0 0 0
1290 26 5 0.75 5.290074910669738 20.67510186673111 67.17099915249126 0 0 0
1291 26 5 0.75 7.210292751366959 21.97765086012551 64.14904125005857 0 0 0
1292 26 5 0.75 6.560453198847792 22.675384932232813 60.46027780947279 0 0 0
1293 26 5 0.75 8.81556231559727 20.805090620184117 58.024588572753196 0 0 0
1294 26 5 0.75 5.708009465425459 19.042234095845014 59.34805075883337 0 0 0
1295 26 5 0.75 4.830228285226412 16.06503838208507 57.13854722146173 0 0 0
1296 26 5 0.75 5.670430221308517 19.738734177588906 56.57808320950261 0 0 0
1297 26 5 0.75 3.604382883473757 19.337834106448508 53.40210658320551 0 0 0
1298 26 5 0.75 2.5688291079900853 22.292147958781406 55.57368620182313 0 0 0
1299 26 5 0.75 1.296952790763327 22.31304404437627 51.98230847352936 0 0 0
1300 26 5 0.75 2.743389997316333 22.040835256229325 48.468077151724444 0 0 0
1301 27 5 0.75 59.37710840029933 25.47843241741759 37.464287123477376 0 0 0
1302 27 5 0.75 56.37960631325177 23.366351631532478 38.49878989874695 0 0 0
1303 27 5 0.75 55.21547021585557 23.73634989458836 42.10766623800752 0 0 0
1304 27 5 0.75 56.928463639782855 20.563338864729303 40.877318915510884 0 0 0
1305 27 5 0.75 59.72207259080034 19.302247999848547 38.6142460357058 0 0 0
1306 27 5 0.75 62.08514166553812 20.960348071970053 41.10075135418967 0 0 0
1307 27 5 0.75 58.54648618444361 19.77747157347468 41.87199747277125 0 0 0
1308 27 5 0.75 62.071704082520995 19.596188776672616 40.43809534268759 0 0 0
1309 27 5 0.75 64.34146411972752 21.72533873018968 38.24013950852291 0 0 0
1310 27 5 0.75 64.69671138672476 17.97393723560155 37.67721304290513 0 0 0
1311 27 5 0.75 66.09305846223342 19.79526236235103 40.71844464003637 0 0 0
1312 27 5 0.75 69.37885699866436 21.239497753601608 39.440238039893984 0 0 0
1313 27 5 0.75 71.50720537476832 20.11173653537901 36.48822384199304 0 0 0
1314 27 5 0.75 70.8477633609966 17.46376059702197 33.829378291692144 0 0 0
1315 27 5 0.75 68.29156197605326 15.01243047916288 35.23398326565838 0 0 0
1316 27 5 0.75 71.78989206446897 14.296490107678858 33.905368958583296 0 0 0
1317 27 5 0.75 73.98762858384066 17.139286501246676 35.17208236584551 0 0 0
1318 27 5 0.75 74.77037569508802 18.091939780158768 31.56710543249185 0 0 0
1319 27 5 0.75 73.81777506138015 21.388866058706622 33.222076473471105 0 0 0
1320 27 5 0.75 72.89021276732745 18.60277291149448 30.794441170195665 0 0 0
1321 27 5 0.75 75.51680729661167 16.15736756463303 32.07393086076594 0 0 0
1322 27 5 0.75 79.01077797865032 14.969747376605106 33.02146828063013 0 0 0
1323 27 5 0.75 79.96745913208414 11.346825349433896 33.710886263933574 0 0 0
1324 27 5 0.75 79.71619356551297 14.553669667736028 35.75272737754379 0 0 0
1325 27 5 0.75 80.94755503084224 11.926621077354483 38.22223434159076 0 0 0
1326 27 5 0.75 80.91389068365608 10.313906311365598 41.67391766937301 0 0 0
1327 27 5 0.75 78.7651770745796 11.352692607367988 38.70406028939545 0 0 0
1328 27 5 0.75 78.58380301524768 8.99594014017088 35.715930228812105 0 0 0
1329 27 5 0.75 81.09401961711674 11.212855990377442 37.53257458718384 0 0 0
1330 27 5 0.75 81.45808651859471 14.194238214440114 35.18845101422713 0 0 0
1331 27 5 0.75 82.30991612268743 11.125691088652092 33.096919311763756 0 0 0
1332 27 5 0.75 79.02913749153112 9.86808566027867 31.623481101361342 0 0 0
1333 27 5 0.75 75.80125236280213 10.019087744867527 33.641910185124274 0 0 0
1334 27 5 0.75 78.33649355671373 7.291769848246249 34.44837728269425 0 0 0
1335 27 5 0.75 79.78373817029936 10.796632866902922 34.81921181304469 0 0 0
1336 27 5 0.75 78.83870160834923 7.106449846161769 34.74467880014993 0 0 0
1337 27 5 0.75 81.60740960424957 8.190456530720004 37.12696458092236 0 0 0
1338 27 5 0.75 79.27261076692533 7.879093524196761 34.132324791665866 0 0 0
1339 27 5 0.75 77.83479143233595 9.61289505191049 37.205223719970945 0 0 0
1340 27 5 0.75 78.50564415568026 7.428824140000293 34.15630737554146 0 0 0
1341 27 5 0.75 81.11955159956615 8.207073939020509 31.495872237237407 0 0 0
1342 27 5 0.75 80.57666915188378 9.082862784473464 27.82785198835947 0 0 0
1343 27 5 0.75 77.20257890960528 7.353933962995019 28.205237954211633 0 0 0
1344 27 5 0.75 76.16743283747826 8.986257492905805 24.921932835423615 0 0 0
1345 27 5 0.75 79.69807765756514 7.560607804679422 25.05672942608419 0 0 0
1346 27 5 0.75 79.52404718028559 4.398418412543176 22.938623753262632 0 0 0
1347 27 5 0.75 83.30717396108332 4.3244112273721065 22.493006544265892 0 0 0
1348 27 5 0.75 80.5134638137891 2.444144793939909 20.71090616768396 0 0 0
1349 27 5 0.75 77.45315078737751 0.5274213025455754 21.926124352995814 0 0 0
1350 27 5 0.75 76.58034944891156 2.06703469922532 18.552119549748443 0 0 0
1351 28 5 0.75 87.48001183775457 62.15076108396215 67.5589692567327 0 0 0
1352 28 5 0.75 88.88019943116645 61.95070557650923 64.02123657926917 0 0 0
1353 28 5 0.75 88.84424836069473 61.02750307677242 60.324954032572876 0 0 0
1354 28 5 0.75 92.1354355665648 59.436949866657784 59.25055780132891 0 0 0
1355 28 5 0.75 91.50690638333458 62.52599963446822 57.11073944506166 0 0 0
1356 28 5 0.75 90.24147757570836 62.788908329033 60.69482495620002 0 0 0
1357 28 5 0.75 93.45099835032543 61.379679916929504 59.201790569515744 0 0 0
1358 28 5 0.75 96.87433397468885 62.30041321856289 57.80568047707044 0 0 0
1359 28 5 0.75 99.33963454549367 63.86176697315054 55.3560748866489 0 0 0
1360 28 5 0.75 99.00579186299994 67.62040765323634 54.82951121400379 0 0 0
1361 28 5 0.75 98.7047270394851 69.89366569951387 51.78685483723752 0 0 0
1362 28 5 0.75 96.7423565963402 72.80930573607475 50.31571737898471 0 0 0
1363 28 5 0.75 96.5314314832246 71.26558663382212 53.79257543332019 0 0 0
1364 28 5 0.75 97.06481089945552 68.77168200907978 56.623131230514424 0 0 0
1365 28 5 0.75 99.59097508062139 66.23972245500445 57.93605748370661 0 0 0
1366 28 5 0.75 101.14472649658781 63.00882879772438 56.6463743006226 0 0 0
1367 28 5 0.75 99.39782849375625 62.19286274765666 53.360244848997176 0 0 0
1368 28 5 0.75 101.21285696988174 64.07206557656998 50.58709350825542 0 0 0
1369 28 5 0.75 100.98938888130631 60.33416527186776 49.884054870984706 0 0 0
1370 28 5 0.75 97.75772666301307 58.62611631428771 48.80933255086394 0 0 0
1371 28 5 0.75 100.70982497301823 60.768287040066475 47.708278442438214 0 0 0
1372 28 5 0.75 99.13779851831656 59.24646008602916 50.827392987895564 0 0 0
1373 28 5 0.75 100.14719921233458 56.448669385501915 48.44630553990899 0 0 0
1374 28 5 0.75 99.22536762142823 54.36915487820914 45.38984583430744 0 0 0
1375 28 5 0.75 97.80320840596195 57.103627595479 43.15015341694939 0 0 0
1376 28 5 0.75 98.52049273265614 60.739604121503696 42.266254159750794 0 0 0
1377 28 5 0.75 101.77332570977937 59.19654619143738 41.019598695158 0 0 0
1378 28 5 0.75 101.65427307813738 62.290301553282035 38.79910230201602 0 0 0
1379 28 5 0.75 100.8965190867116 58.68893634907451 39.78504223649561 0 0 0
1380 28 5 0.75 103.27309769352574 61.49417413026771 40.78434955489153 0 0 0
1381 28 5 0.75 99.87497621272894 61.60824303539734 39.065088467496764 0 0 0
1382 28 5 0.75 99.28435198774085 59.12716799858508 41.89555303829857 0 0 0
1383 28 5 0.75 98.25954672769754 55.457606365171614 41.909394915608544 0 0 0
1384 28 5 0.75 100.40789358671216 52.60686501251852 43.24130313828591 0 0 0
1385 28 5 0.75 100.52040961589064 49.71820436000033 40.75955380006275 0 0 0
1386 28 5 0.75 104.0151992370008 50.8601295149884 39.76027783988647 0 0 0
1387 28 5 0.75 0.8445739220771884 51.64000143339146 40.01577030459046 1 0 0
1388 28 5 0.75 0.7851141340300671 48.61524511467734 42.331674824644 1 0 0
1389 28 5 0.75 0.10544097553137988 48.645725606600934 46.080436665202626 1 0 0
1390 28 5 0.75 1.8583028241027932 46.56332027654609 48.74636302974873 1 0 0
1391 28 5 0.75 106.85087693026443 48.8547596930897 51.125575495132516 0 0 0
1392 28 5 0.75 106.60573877669748 47.80626357921853 47.47089860314017 0 0 0
1393 28 5 0.75 1.9199283253992547 46.53052018345369 44.63807900014997 1 0 0
1394 28 5 0.75 1.5797058048708408 42.76221973014629 45.085583558929585 1 0 0
1395 28 5 0.75 0.8061757993563674 41.40965299484061 48.562408915071785 1 0 0
1396 28 5 0.75 4.408789667402999 41.882339900334074 49.70863769116016 1 0 0
1397 28 5 0.75 5.409138163773207 45.337457018528994 48.45262471934566 1 0 0
1398 28 5 0.75 1.858863901785739 44.993916683284276 47.11335898666626 1 0 0
1399 28 5 0.75 105.71511928923574 43.857457309962506 45.109933371626674 0 0 0
1400 28 5 0.75 102.13767555921775 42.64040092046128 45.5965236544409 0 0 0
1401 29 5 0.75 21.942424526967347 56.24941418581887 78.8477819767973 0 0 0
1402 29 5 0.75 25.42287941519402 57.59038849380009 78.07040068273797 0 0 0
1403 29 5 0.75 26.721204284451687 59.10540330554024 81.31619529331871 0 0 0
1404 29 5 0.75 23.75700880620616 57.970660552114175 79.20858905630578 0 0 0
1405 29 5 0.75 24.819045889306953 61.237845382411436 77.56126379431463 0 0 0
1406 29 5 0.75 23.341808598576897 64.74235376346986 77.33259155295649 0 0 0
1407 29 5 0.75 24.78540751256712 67.62911724824639 79.35712082132657 0 0 0
1408 29 5 0.75 27.256023946942467 64.95346839745837 78.23772024000138 0 0 0
1409 29 5 0.75 26.424826150731523 68.29066059060366 79.87734168703852 0 0 0
1410 29 5 0.75 26.82554643961493 71.40558390114256 82.03437113040238 0 0 0
1411 29 5 0.75 30.494756106328325 72.43169029962252 82.04467067871671 0 0 0
1412 29 5 0.75 29.079880050085 75.80944880839527 80.99349362327717 0 0 0
1413 29 5 0.75 26.63314256217421 78.32683332690523 82.47415254795173 0 0 0
1414 29 5 0.75 28.212120391964575 75.77102885230377 84.81739656013606 0 0 0
1415 29 5 0.75 28.172332419538996 79.11707905236848 82.9957311199695 0 0 0
1416 29 5 0.75 25.155530510340554 77.84237618987245 84.94255901503395 0 0 0
1417 29 5 0.75 21.379199247593952 78.3440514835976 85.00374801460464 0 0 0
1418 29 5 0.75 22.760054542063074 76.7633397511436 81.82401703940896 0 0 0
1419 29 5 0.75 22.984404373193424 75.55396479990458 78.21802489014027 0 0 0
1420 29 5 0.75 21.886666076559912 75.11716104922677 81.84021664590058 0 0 0
1421 29 5 0.75 23.34241104096424 72.69252734128568 79.28716788394414 0 0 0
1422 29 5 0.75 25.877045262053365 73.4700856498353 76.55090538884441 0 0 0
1423 29 5 0.75 25.54724521714787 76.0787278379618 79.30813549616353 0 0 0
1424 29 5 0.75 28.967260860915623 77.6305644758288 79.94953712210275 0 0 0
1425 29 5 0.75 27.10005987514597 79.64792302983423 77.3113701555667 0 0 0
1426 29 5 0.75 25.48170254143169 79.81214858173841 80.7566639759128 0 0 0
1427 29 5 0.75 28.08553031230709 80.7123627801036 78.1249733906274 0 0 0
1428 29 5 0.75 25.979928230910097 83.38395897305122 79.84110673528465 0 0 0
1429 29 5 0.75 27.441994849677563 86.74828445761779 78.81165288193239 0 0 0
1430 29 5 0.75 26.068184563099223 89.74144971129662 80.72730082992838 0 0 0
1431 29 5 0.75 28.48054103614315 86.79297693012236 80.67122493816072 0 0 0
1432 29 5 0.75 30.661727449808637 85.90288265487104 77.67685388399828 0 0 0
1433 29 5 0.75 28.473927097960658 82.80032626876994 77.35471495198738 0 0 0
1434 29 5 0.75 26.884783895845736 81.89988931890586 74.01107364609175 0 0 0
1435 29 5 0.75 28.67457797369572 82.62218087819711 70.72610301269641 0 0 0
1436 29 5 0.75 26.27241814751617 84.16467272667659 68.20292107972698 0 0 0
1437 29 5 0.75 28.130135354983516 87.48588131942277 68.38882498110773 0 0 0
1438 29 5 0.75 27.621674147752717 85.23079729116719 65.36026703610355 0 0 0
1439 29 5 0.75 25.206589422392693 83.5985747746511 62.9068377165774 0 0 0
1440 29 5 0.75 21.58364645073819 82.43529774336896 63.099634948483505 0 0 0
1441 29 5 0.75 21.762365011926587 79.96575903200309 60.203855566529114 0 0 0
1442 29 5 0.75 20.748900470197068 80.24138872183968 63.866234287625225 0 0 0
1443 29 5 0.75 20.739848596240456 82.5969658690714 60.87169352700473 0 0 0
1444 29 5 0.75 18.00918335810366 85.05145849267652 59.85432765481355 0 0 0
1445 29 5 0.75 19.40684006413303 82.17418591248016 57.784555147666616 0 0 0
1446 29 5 0.75 20.09251820322297 80.45874136209136 54.45240936992586 0 0 0
1447 29 5 0.75 20.550348423993313 83.25530823782871 51.90570459738586 0 0 0
1448 29 5 0.75 20.804216993107968 86.39521529276095 49.7626613323064 0 0 0
1449 29 5 0.75 21.561124830074366 87.0440867440976 53.439909809902 0 0 0
1450 29 5 0.75 23.58546852932424 84.04160661082392 54.624496504325066 0 0 0
1451 30 5 0.75 68.15827285020464 100.03838869262938 19.584047934679692 0 0 0
1452 30 5 0.75 69.88276354549838 102.36099383807594 22.063511017726192 0 0 0
1453 30 5 0.75 71.75516392303615 103.42604367748396 18.92091882882013 0 0 0
1454 30 5 0.75 73.30913493367052 106.86577240168332 18.401746023266988 0 0 0
1455 30 5 0.75 70.97148296882116 1.867322598600012 20.74033678270455 0 1 0
1456 30 5 0.75 70.52916302489571 104.99775205767493 21.161182561832995 0 0 0
1457 30 5 0.75 73.30474259339273 103.7194263520036 23.436735560372412 0 0 0
1458 30 5 0.75 75.0737098191077 103.23847907512257 20.096743843136124 0 0 0
1459 30 5 0.75 77.52103606897417 100.92224962502083 21.874882015831346 0 0 0
1460 30 5 0.75 78.64730876815166 99.57414595478362 18.494020246787777 0 0 0
1461 30 5 0.75 80.9442063861514 101.77469412976194 16.39689148058702 0 0 0
1462 30 5 0.75 77.39772276371635 103.16680520678126 16.372794488242736 0 0 0
1463 30 5 0.75 75.8660546299722 100.32870076066587 18.401403834818066 0 0 0
1464 30 5 0.75 73.72678728669663 100.27923022928633 21.55373438546147 0 0 0
1465 30 5 0.75 76.07324494100614 102.97112441425679 22.881869233078447 0 0 0
1466 30 5 0.75 79.60545765320728 102.38714717537034 21.578587245085362 0 0 0
1467 30 5 0.75 77.29346612920729 99.53130524159828 20.57113399939044 0 0 0
1468 30 5 0.75 79.44155296424029 100.87523297336435 23.416425056724997 0 0 0
1469 30 5 0.75 83.1647054633492 100.08955698566614 23.22420458244214 0 0 0
1470 30 5 0.75 80.39320692459404 99.54797082115029 20.666553262171327 0 0 0
1471 30 5 0.75 78.10290956009788 96.966892762705 19.051414246979665 0 0 0
1472 30 5 0.75 80.85101839246572 94.56369556433711 20.141662416534924 0 0 0
1473 30 5 0.75 81.21400752514555 98.14214104517988 18.885053157380636 0 0 0
1474 30 5 0.75 78.12458165986557 97.35055570767014 20.969505237995257 0 0 0
1475 30 5 0.75 75.53503975600964 94.58796498436861 21.39195668337398 0 0 0
1476 30 5 0.75 77.66482272271885 93.77699630235118 18.338687237107862 0 0 0
1477 30 5 0.75 75.37478427064052 91.33894090379968 16.514486107408466 0 0 0
1478 30 5 0.75 77.9805736339353 90.87978474564099 13.7731110114822 0 0 0
1479 30 5 0.75 78.82550166779964 90.15981264008416 10.128411190535326 0 0 0
1480 30 5 0.75 75.76601201034322 92.40866582855952 10.441911386071768 0 0 0
1481 30 5 0.75 73.98980698548174 89.10511610967062 9.772766435791302 0 0 0
1482 30 5 0.75 72.0774221999607 85.84950419370621 9.262986596313374 0 0 0
1483 30 5 0.75 71.93026576221257 89.64964647746115 9.493992237039002 0 0 0
1484 30 5 0.75 70.87036005147621 92.4012816202313 11.906709362070591 0 0 0
1485 30 5 0.75 71.88982154723925 94.90602217179854 14.590563498940044 0 0 0
1486 30 5 0.75 74.63216703241031 97.43588097314908 13.818905747607776 0 0 0
1487 30 5 0.75 72.98104799167056 94.60700768480359 11.872786061722026 0 0 0
1488 30 5 0.75 74.93418332578305 97.86971172425851 11.635879502999389 0 0 0
1489 30 5 0.75 71.25684170333922 98.1962852745739 10.694280698796355 0 0 0
1490 30 5 0.75 68.33106851658643 99.34196871132909 8.539434829036006 0 0 0
1491 30 5 0.75 68.27654678607662 98.33517998025337 12.213601922661605 0 0 0
1492 30 5 0.75 66.2458550146758 97.81087496606044 9.032800894358017 0 0 0
1493 30 5 0.75 69.06261633493305 96.19051998401068 11.021872385493793 0 0 0
1494 30 5 0.75 67.52535890750845 93.89377666335 13.644449309213757 0 0 0
1495 30 5 0.75 69.90726691723357 93.25419061485293 16.548505768681306 0 0 0
1496 30 5 0.75 71.24579041726535 94.90932792986914 19.708406923512513 0 0 0
1497 30 5 0.75 68.76486894645363 97.31141202696098 18.098711099400447 0 0 0
1498 30 5 0.75 68.82885938476284 94.22659049475922 15.86356427239569 0 0 0
1499 30 5 0.75 72.56977663561679 93.85646977552813 15.243363679475058 0 0 0
1500 30 5 0.75 71.17384844804616 96.14029354032728 17.954753269055356 0 0 0
1501 31 5 0.75 82.87296930299314 75.11524357831274 51.077004357421856 0 0 0
1502 31 5 0.75 80.50894102005934 75.76882951291722 48.16147769769531 0 0 0
1503 31 5 0.75 79.27438304192195 79.14415974940833 49.426037855713204 0 0 0
1504 31 5 0.75 80.09332755554769 75.49543248424845 48.69650428686166 0 0 0
1505 31 5 0.75 83.14209353092053 77.64683341661261 47.926699080571446 0 0 0
1506 31 5 0.75 79.62778646431275 78.38260681517967 49.20121206502931 0 0 0
1507 31 5 0.75 77.0974615159097 81.14782829578968 48.517760663200264 0 0 0
1508 31 5 0.75 75.77237144457646 81.13644040443278 52.08988980683219 0 0 0
1509 31 5 0.75 78.83992121070327 81.62301913147765 49.88320007451303 0 0 0
1510 31 5 0.75 77.17437057250288 80.9757392108483 46.518223139088306 0 0 0
1511 31 5 0.75 77.36719164471701 79.60672930949339 42.96790879749792 0 0 0
1512 31 5 0.75 74.3037505118282 80.7694702214667 44.91199264264153 0 0 0
1513 31 5 0.75 71.23615953684899 82.55489721475344 46.29699663609035 0 0 0
1514 31 5 0.75 67.7392945123549 82.27301934901571 47.78312579241465 0 0 0
1515 31 5 0.75 67.4274978031734 84.00925212681024 44.40608884363019 0 0 0
1516 31 5 0.75 67.50469373025865 87.7918110388809 44.85596534396807 0 0 0
1517 31 5 0.75 67.46820117997035 91.50204044317736 45.721393597070154 0 0 0
1518 31 5 0.75 66.18859173106273 95.06308872584982 45.276832255136526 0 0 0
1519 31 5 0.75 64.09263175919403 97.87278428055915 43.783961635768996 0 0 0
1520 31 5 0.75 60.657147619254374 98.97148731101575 45.0113166679779 0 0 0
1521 31 5 0.75 62.1110350549448 99.60693018660727 41.54742814838009 0 0 0
1522 31 5 0.75 63.24080684919946 101.06662370547716 44.88044637873466 0 0 0
1523 31 5 0.75 60.432474690287734 99.22637229661174 43.07965620845077 0 0 0
1524 31 5 0.75 61.43966035519972 97.29701185074897 46.20683469813376 0 0 0
1525 31 5 0.75 59.317186184533575 98.77590456240866 49.00399035026593 0 0 0
1526 31 5 0.75 57.36696008727759 101.89014385598279 47.99689959370992 0 0 0
1527 31 5 0.75 59.786981546442334 102.61140791110782 45.143940726153865 0 0 0
1528 31 5 0.75 57.928305899669006 102.06782974297981 48.425091075532315 0 0 0
1529 31 5 0.75 57.11718538832968 98.345365614038 48.387086801744914 0 0 0
1530 31 5 0.75 57.84479541111832 97.59975959699142 52.05188629449775 0 0 0
1531 31 5 0.75 59.38069511122419 97.63921481278351 48.56540448654844 0 0 0
1532 31 5 0.75 56.363115389316846 99.64473864852539 49.74361786544241 0 0 0
1533 31 5 0.75 59.758358141701756 99.95566995228334 51.44413201613952 0 0 0
1534 31 5 0.75 62.51031035980443 97.90001018282376 49.79576254860344 0 0 0
1535 31 5 0.75 62.97204726686176 96.15392189479026 53.150471883114164 0 0 0
1536 31 5 0.75 65.03658192821888 98.5962154499137 55.2214617002445 0 0 0
1537 31 5 0.75 68.14797635795861 96.80435383403699 56.496042671439454 0 0 0
1538 31 5 0.75 70.97649043281653 98.0517551720752 54.269027173022096 0 0 0
1539 31 5 0.75 73.5433043153748 100.78491463767364 54.9453450183551 0 0 0
1540 31 5 0.75 74.31586969780034 104.40922318840825 55.83057394860402 0 0 0
1541 31 5 0.75 73.91737061997173 0.9725423034857243 57.38737997483342 0 1 0
1542 31 5 0.75 74.38245919998593 4.750883327376172 57.23268117093754 0 1 0
1543 31 5 0.75 72.93332149689486 7.826535868515862 55.51324482036772 0 1 0
1544 31 5 0.75 71.19285868795372 5.059863247830862 53.55559014687581 0 1 0
1545 31 5 0.75 68.75958943780266 7.426402534825087 55.28613704291249 0 1 0
1546 31 5 0.75 72.00781410245921 5.528067146187837 54.684922205966195 0 1 0
1547 31 5 0.75 70.86738885848051 7.819384284320293 51.862618885024844 0 1 0
1548 31 5 0.75 71.23237357402098 11.607538334272618 52.04365769647584 0 1 0
1549 31 5 0.75 69.78797588910015 10.12262917532611 55.24129121479405 0 1 0
1550 31 5 0.75 73.3620709737229 9.387404635789707 54.14521220188527 0 1 0
1551 32 5 0.75 4.788714860663734 40.43408868212977 2.197125578004072 0 0 0
1552 32 5 0.75 6.639102117683611 43.24848082142616 0.41629322055851237 0 0 0
1553 32 5 0.75 9.858565333044186 44.3485096214081 2.131254807344189 0 0 0
1554 32 5 0.75 6.733417524730751 42.17118540294343 2.037390949118905 0 0 0
1555 32 5 0.75 10.538962054559335 41.997904982407775 1.974903131500393 0 0 0
1556 32 5 0.75 8.824700006701818 41.141847896279195 105.57298630246584 0 0 -1
1557 32 5 0.75 7.020343892167439 39.460946911223665 1.5860955055480006 0 0 0
1558 32 5 0.75 8.660994935195976 41.71230724877956 4.185276296776187 0 0 0
1559 32 5 0.75 12.154662386774653 42.80359584846806 3.1272229285713222 0 0 0
1560 32 5 0.75 10.87704387847373 46.057819225190386 1.6126863124273312 0 0 0
1561 32 5 0.75 11.663872813471347 44.95570881843216 104.9426501195103 0 0 -1
1562 32 5 0.75 9.77150262643085 48.09463066259928 105.9829408151386 0 0 -1
1563 32 5 0.75 9.691673342504066 45.077807747068334 103.65732115970157 0 0 -1
1564 32 5 0.75 7.758896939582738 47.9800078961918 105.19280468964848 0 0 -1
1565 32 5 0.75 4.076295029087845 47.167141051944185 104.65078009394983 0 0 -1
1566 32 5 0.75 3.602009728313296 45.63957102051175 1.2175754867245634 0 0 0
1567 32 5 0.75 4.550093151792588 42.19666914843341 2.5456058031568443 0 0 0
1568 32 5 0.75 5.527678882080234 40.718223099489634 5.918234365613805 0 0 0
1569 32 5 0.75 6.260553550236927 37.01894363255871 6.4607527029236875 0 0 0
1570 32 5 0.75 5.209762991252226 33.37107760119595 6.784809207839634 0 0 0
1571 32 5 0.75 2.203982942840273 33.650784713951445 4.460341477015516 0 0 0
1572 32 5 0.75 5.557177109283325 32.064150475243146 3.591560333866779 0 0 0
1573 32 5 0.75 6.939014553178774 29.309280686414436 5.831497325223312 0 0 0
1574 32 5 0.75 10.107990153047776 30.098385549007723 7.793895644440521 0 0 0
1575 32 5 0.75 12.506321060638653 27.461905873874365 6.447387649550395 0 0 0
1576 32 5 0.75 15.961049207637142 26.074135323692015 7.256736974862381 0 0 0
1577 32 5 0.75 13.903486400760077 28.388287093550453 5.0369989538749405 0 0 0
1578 32 5 0.75 14.25926693591924 26.585772177584364 8.374731745534815 0 0 0
1579 32 5 0.75 13.15415360269793 29.72172149083094 6.514450469629257 0 0 0
1580 32 5 0.75 9.74282845492833 30.055105078451405 4.850774984536076 0 0 0
1581 32 5 0.75 8.771280551892344 26.408717997340585 4.325364738333642 0 0 0
1582 32 5 0.75 5.592598348319618 24.447965882840215 3.572018473875944 0 0 0
1583 32 5 0.75 5.658682683698897 26.57055569927645 6.7352992599868875 0 0 0
1584 32 5 0.75 8.670431729454714 28.816922378152956 6.103393864043589 0 0 0
1585 32 5 0.75 6.574761473736831 25.90487702181871 7.385680112098793 0 0 0
1586 32 5 0.75 10.171208103296173 26.991440358487118 6.752393639687405 0 0 0
1587 32 5 0.75 11.759200964171258 27.760956453825838 3.37567575795307 0 0 0
1588 32 5 0.75 13.990839123555261 27.20691366056168 0.33776073135781814 0 0 0
1589 32 5 0.75 11.52420504407031 29.77387132047452 105.8715500053323 0 0 -1
1590 32 5 0.75 10.650666824718773 26.317002300172753 0.32314803118298374 0 0 0
1591 32 5 0.75 11.485412967170756 29.838517651160785 1.5140420274803734 0 0 0
1592 32 5 0.75 12.555089862186737 26.19775703361837 1.8557340906324795 0 0 0
1593 32 5 0.75 10.645777819383664 27.320317049750486 4.9558125627664715 0 0 0
1594 32 5 0.75 12.553960306458434 24.042164292282898 5.31449639949292 0 0 0
1595 32 5 0.75 15.97837519053902 24.31502687715344 3.666761981734674 0 0 0
1596 32 5 0.75 17.787400590345182 21.798350325980053 1.4509401839291298 0 0 0
1597 32 5 0.75 18.86133309615409 23.27917068916664 4.793086204817347 0 0 0
1598 32 5 0.75 18.75264106753638 26.448430751594742 6.90497557209329 0 0 0
1599 32 5 0.75 16.59063379733961 27.733818408227755 9.766723837715514 0 0 0
1600 32 5 0.75 19.431155797590772 25.93670682560119 7.97286633900538 0 0 0
1601 33 5 0.75 92.82509038517293 28.45811464427263 95.14052713618743 0 0 0
1602 33 5 0.75 95.70079891673522 27.094054346760558 97.23474296705376 0 0 0
1603 33 5 0.75 92.58846343851573 27.911738533546792 99.27456169470973 0 0 0
1604 33 5 0.75 90.29429400078456 30.76402579912702 100.33160660652243 0 0 0
1605 33 5 0.75 90.60618551779478 27.604091883654537 98.22598524182654 0 0 0
1606 33 5 0.75 87.31516714475592 28.37679558438129 99.98332045720345 0 0 0
1607 33 5 0.75 87.63425826125433 29.107845858879756 96.25775387538968 0 0 0
1608 33 5 0.75 90.4666999797154 31.16732646807475 97.75839158378938 0 0 0
1609 33 5 0.75 91.1089983918107 28.532821991105337 100.43475832073855 0 0 0
1610 33 5 0.75 94.52049489193658 29.34789560056383 98.9469926668827 0 0 0
1611 33 5 0.75 96.44848132068755 26.234341109563406 99.99806200908763 0 0 0
1612 33 5 0.75 93.2947498246193 24.246813676591653 99.21078038610139 0 0 0
1613 33 5 0.75 93.77834280680567 24.61925511654208 102.97156822927838 0 0 0
1614 33 5 0.75 93.50618761185406 27.445979085495495 105.51158066098124 0 0 0
1615 33 5 0.75 92.48573475363956 30.2595275806234 103.15388669659032 0 0 0
1616 33 5 0.75 95.5019146238536 29.69648192543883 105.41258955015329 0 0 0
1617 33 5 0.75 91.864233548343 29.476280862071846 106.52384464443365 0 0 0
1618 33 5 0.75 90.31638879236269 26.50519988359866 1.447301659848307 0 0 1
1619 33 5 0.75 91.9088484682079 24.243792199012812 4.067646573195219 0 0 1
1620 33 5 0.75 90.3668723642523 26.72858611418922 1.6254735871165877 0 0 1
1621 33 5 0.75 90.89742312828227 26.310529099966868 5.375119466349275 0 0 1
1622 33 5 0.75 88.74852829643082 26.061898170258193 8.511444331925915 0 0 1
1623 33 5 0.75 86.34773678793822 26.448595848497423 5.57839727495697 0 0 1
1624 33 5 0.75 89.77430283904866 24.905305788487336 6.205295103994104 0 0 1
1625 33 5 0.75 91.14829279828345 28.24747259555343 7.412843291714836 0 0 1
1626 33 5 0.75 92.78382733628072 24.921311573411714 6.530925138027527 0 0 1
1627 33 5 0.75 91.57893807215709 23.448736489877103 3.2300366993564182 0 0 1
1628 33 5 0.75 91.11928695218411 25.212021566431368 6.576026326762431 0 0 1
1629 33 5 0.75 89.25054855586252 22.653845698725164 4.459507242038882 0 0 1
1630 33 5 0.75 89.302819798932 22.106878277998444 8.22967890362294 0 0 1
1631 33 5 0.75 90.16623561548028 19.743666741111873 5.3685874406213685 0 0 1
1632 33 5 0.75 91.03641944848047 18.960722240872855 1.7428629604201262 0 0 1
1633 33 5 0.75 88.60430057380172 17.42563282643547 4.2417423630951845 0 0 1
1634 33 5 0.75 85.99539679221756 16.14886916384972 6.707425961681281 0 0 1
1635 33 5 0.75 86.8479604037969 18.227290456793774 9.784665019220938 0 0 1
1636 33 5 0.75 89.5025942314963 19.287711484300235 12.303499369720427 0 0 1
1637 33 5 0.75 91.77502243112501 19.88851332668889 9.304965190539761 0 0 1
1638 33 5 0.75 95.52360582131831 20.465777627978802 8.943041865478875 0 0 1
1639 33 5 0.75 93.99958399981534 23.632838114966102 7.472264737785309 0 0 1
1640 33 5 0.75 91.93713292161709 26.75835777116407 8.1747762528219 0 0 1
1641 33 5 0.75 89.29586963180704 25.286870778678388 10.493084744987513 0 0 1
1642 33 5 0.75 88.0277980183245 21.75401473072576 9.839615137794993 0 0 1
1643 33 5 0.75 85.1027298613175 21.678942348905927 7.399442927816466 0 0 1
1644 33 5 0.75 87.80373513297096 19.730094255555297 5.549399244131166 0 0 1
1645 33 5 0.75 90.90177270336878 21.282379950686767 3.965520355739187 0 0 1
1646 33 5 0.75 90.60755864058673 22.72247240817032 0.45045680024544765 0 0 1
1647 33 5 0.75 90.1803700937425 25.903957605942686 2.5027145525271663 0 0 1
1648 33 5 0.75 87.42691177834017 28.189870660484885 1.1953627206107171 0 0 1
1649 33 5 0.75 86.97348498820917 27.276090782747634 4.866263220628937 0 0 1
1650 33 5 0.75 90.19796807919924 29.244796752048437 5.359219204828776 0 0 1
1651 34 5 0.75 102.37833948207029 83.45138074521063 32.01622752450171 0 0 0
1652 34 5 0.75 104.70673646935757 80.4455987319854 32.26105799352715 0 0 0
1653 34 5 0.75 0.4713920118583559 77.74549449861526 32.67579406715049 1 0 0
1654 34 5 0.75 2.3554392907466735 74.50792668862347 33.37194098168687 1 0 0
1655 34 5 0.75 4.023398304951968 72.8306317023959 30.38518785226569 1 0 0
1656 34 5 0.75 6.673661921980084 70.65046520502028 32.040203502940315 1 0 0
1657 34 5 0.75 6.466385520069949 71.31184855847016 28.29377739890589 1 0 0
1658 34 5 0.75 6.212376706876626 68.96436540153302 25.303643229555533 1 0 0
1659 34 5 0.75 5.775573832173976 69.53614079774808 29.045083613276034 1 0 0
1660 34 5 0.75 3.161510438722928 71.45965314843176 31.040797222937137 1 0 0
1661 34 5 0.75 6.16341798124877 70.21405950956932 29.05254482624504 1 0 0
1662 34 5 0.75 3.2829431701458844 68.43621246142473 27.303766756847633 1 0 0
1663 34 5 0.75 4.995230932736234 65.03620832795869 27.459145360577786 1 0 0
1664 34 5 0.75 7.296086264283701 64.2070817851449 24.537722091126536 1 0 0
1665 34 5 0.75 7.745190025368544 66.75161664778173 21.73776706566538 1 0 0
1666 34 5 0.75 4.16011639177097 67.17320096140246 20.518909523459392 1 0 0
1667 34 5 0.75 6.1385667282257685 67.34553013821407 23.77039178867342 1 0 0
1668 34 5 0.75 8.303073500117037 67.12354407034458 26.897967946036932 1 0 0
1669 34 5 0.75 11.931360841660307 66.68262662512733 27.97371083990142 1 0 0
1670 34 5 0.75 10.448288272534896 67.13984472936271 24.49412072612837 1 0 0
1671 34 5 0.75 6.857528746109509 67.80135787885362 23.405568303671863 1 0 0
1672 34 5 0.75 6.304703849567787 70.01909159295938 26.45386976630352 1 0 0
1673 34 5 0.75 6.757029627075099 73.48094347981393 27.9793476928839 1 0 0
1674 34 5 0.75 10.46671283390171 74.10297314277285 28.58550741060512 1 0 0
1675 34 5 0.75 8.467113739161192 76.06375576629007 31.168729229115073 1 0 0
1676 34 5 0.75 4.769403785341694 75.95322838035446 30.257233318876043 1 0 0
1677 34 5 0.75 6.356766820345868 79.18242081992237 29.004757856705318 1 0 0
1678 34 5 0.75 8.648979052667201 78.41091712532331 31.94867448786464 1 0 0
1679 34 5 0.75 9.735572185116851 81.95205955909358 32.840709032187235 1 0 0
1680 34 5 0.75 10.961978701774754 84.4276833946306 30.217102034022304 1 0 0
1681 34 5 0.75 12.440173476827226 81.43808221197811 32.059200016131385 1 0 0
1682 34 5 0.75 15.507807613938922 81.47330445736654 34.31850968818983 1 0 0
1683 34 5 0.75 12.65117396799279 79.8781146779933 32.366302275891734 1 0 0
1684 34 5 0.75 10.883540543220022 79.27754352721003 35.68758009752499 1 0 0
1685 34 5 0.75 10.669544472779037 82.93110770940896 34.62844155682845 1 0 0
1686 34 5 0.75 12.037013921399975 79.78600127781237 36.28808996568442 1 0 0
1687 34 5 0.75 11.19431236590863 82.56682911159436 38.752425707265886 1 0 0
1688 34 5 0.75 10.17756443761607 86.23316349101002 38.55163758852492 1 0 0
1689 34 5 0.75 12.923622042027333 87.76606557987196 40.70233022561135 1 0 0
1690 34 5 0.75 16.63728896003103 86.91652075522391 40.647088818689845 1 0 0
1691 34 5 0.75 12.82767222354866 86.96065771930319 40.6159079028069 1 0 0
1692 34 5 0.75 12.013694897950217 90.65963961978406 41.02951860543258 1 0 0
1693 34 5 0.75 13.108923678341313 90.56810436642927 44.677558519687395 1 0 0
1694 34 5 0.75 14.132785308988531 93.50181176065438 46.88236424499685 1 0 0
1695 34 5 0.75 10.410951769843706 92.75911082675087 47.21770053840326 1 0 0
1696 34 5 0.75 9.117384719299181 92.52063808428564 50.7934403271528 1 0 0
1697 34 5 0.75 12.289942229055455 93.20744002501685 52.78825408825857 1 0 0
1698 34 5 0.75 15.645889490074751 91.4596793731948 53.23440505508446 1 0 0
1699 34 5 0.75 17.603157720947422 94.5078604550754 54.41499523142922 1 0 0
1700 34 5 0.75 16.442824139934743 90.91065012680818 53.93561663889313 1 0 0
1701 35 5 0.75 80.13002273228399 78.04176364260135 90.01082663030752 0 0 0
1702 35 5 0.75 81.61031713546538 75.91650463050337 92.80512486267395 0 0 0
1703 35 5 0.75 77.85614455515997 75.37419664202505 93.1631615687749 0 0 0
1704 35 5 0.75 74.2634428963803 75.1374492774944 94.4091733971255 0 0 0
1705 35 5 0.75 76.03682298091584 74.03857998047602 97.59723069646047 0 0 0
1706 35 5 0.75 79.45133150022946 74.54927827380295 99.2085713881603 0 0 0
1707 35 5 0.75 81.49971074237726 73.2975577665172 102.16719239328722 0 0 0
1708 35 5 0.75 83.0918140467889 75.10773927494849 99.2168449604219 0 0 0
1709 35 5 0.75 83.38858365565122 78.83590338791053 99.94404517087126 0 0 0
1710 35 5 0.75 82.51034173643264 80.48935659483747 103.26231032360246 0 0 0
1711 35 5 0.75 80.73245600210029 79.99912005508635 99.92841013752155 0 0 0
1712 35 5 0.75 81.10665623445863 81.38196532726086 96.39799753566783 0 0 0
1713 35 5 0.75 78.41313539661711 80.61937928112239 98.98247195387134 0 0 0
1714 35 5 0.75 75.94986610631543 77.77920576565657 99.60038683919386 0 0 0
1715 35 5 0.75 75.35881780339032 77.33635168833011 103.33811906205369 0 0 0
1716 35 5 0.75 74.43418594649484 80.54863876197625 101.50990471857536 0 0 0
1717 35 5 0.75 74.61356399161038 76.7712077259809 101.97351908982549 0 0 0
1718 35 5 0.75 73.63455545210343 79.64204298723826 99.66788529793791 0 0 0
1719 35 5 0.75 77.05512915129363 78.07897048706049 100.27827855445075 0 0 0
1720 35 5 0.75 73.72509088096336 79.1007832979797 98.73463231985646 0 0 0
1721 35 5 0.75 75.82749354544052 77.13558388492214 101.23142912843292 0 0 0
1722 35 5 0.75 75.51325288940777 80.91524433085269 101.59408560991947 0 0 0
1723 35 5 0.75 72.60516014400847 78.79249752600717 100.34787431697029 0 0 0
1724 35 5 0.75 76.10882893914388 79.68470027367312 99.14605102253317 0 0 0
1725 35 5 0.75 79.44155225472436 78.22169748754871 100.27240716051905 0 0 0
1726 35 5 0.75 81.84116930697522 79.35174655117684 97.53727880588191 0 0 0
1727 35 5 0.75 79.817612003444 78.33628079398594 94.47294443520724 0 0 0
1728 35 5 0.75 78.7052668125682 74.71225941199872 94.85407066001324 0 0 0
1729 35 5 0.75 76.97375403433185 72.1696015764375 97.10192622255798 0 0 0
1730 35 5 0.75 78.83910840411149 69.49367297702165 95.13318063056994 0 0 0
1731 35 5 0.75 78.7324133628501 66.41319746976252 97.37268656209744 0 0 0
1732 35 5 0.75 79.49460377511743 66.22564566695719 93.64441751377056 0 0 0
1733 35 5 0.75 78.53618544375084 69.66056964403057 94.9856227828576 0 0 0
1734 35 5 0.75 74.76522188793149 69.21545134726354 95.29835839414217 0 0 0
1735 35 5 0.75 73.8667082319383 72.83939975283073 96.05715425850936 0 0 0
1736 35 5 0.75 76.4634539867034 73.29750521706242 93.30703592128266 0 0 0
1737 35 5 0.75 79.09037372808895 74.19811506769324 95.91554019945926 0 0 0
1738 35 5 0.75 77.76855550038358 75.19581683611206 99.34679183030767 0 0 0
1739 35 5 0.75 75.55613448299434 78.11876723365225 98.3086905754515 0 0 0
1740 35 5 0.75 78.25836158472383 75.49574525290164 97.7309152045868 0 0 0
1741 35 5 0.75 77.78292389545436 73.67770858235643 94.41658244094116 0 0 0
1742 35 5 0.75 77.39788198981682 69.93794493753829 95.03465251124027 0 0 0
1743 35 5 0.75 75.13535837936412 66.88056554355488 95.25717925882279 0 0 0
1744 35 5 0.75 74.43656215165849 70.60146277833232 95.68462235488357 0 0 0
1745 35 5 0.75 76.0754211210078 67.6763379834959 97.49401070822746 0 0 0
1746 35 5 0.75 72.38573805618782 67.94055574920453 96.58158106520587 0 0 0
1747 35 5 0.75 69.5254026758208 65.42838611586362 96.73515594967735 0 0 0
1748 35 5 0.75 66.86918681752455 63.146406105248424 95.23409480992046 0 0 0
1749 35 5 0.75 66.80085838542496 62.06140692806033 91.58249132502948 0 0 0
1750 35 5 0.75 63.4444179987311 60.519215767062846 90.64865281998077 0 0 0
1751 36 5 0.75 71.08155008624195 74.38195948044803 90.69473085216734 0 0 0
1752 36 5 0.75 72.36659676681371 75.36541553648983 94.14401617156123 0 0 0
1753 36 5 0.75 69.89972701433192 77.89870252801605 92.7251748686473 0 0 0
1754 36 5 0.75 72.5332185896981 76.45926467395672 95.07226685380179 0 0 0
1755 36 5 0.75 70.8548847013521 73.6406780487141 97.01001420452448 0 0 0
1756 36 5 0.75 68.26301446999578 71.29944585803906 95.48786423387247 0 0 0
1757 36 5 0.75 67.78497908381301 74.58459475105374 93.61827098391636 0 0 0
1758 36 5 0.75 68.99604990450173 71.44727501554594 91.82756376483512 0 0 0
1759 36 5 0.75 69.09724432126248 67.879920776503 93.16167149032013 0 0 0
1760 36 5 0.75 71.69037384884159 65.31579274876223 92.05848215455241 0 0 0
1761 36 5 0.75 72.71620489685243 62.55730078897325 94.47808806641419 0 0 0
1762 36 5 0.75 70.31689702768077 60.158356370507676 96.21143379824146 0 0 0
1763 36 5 0.75 73.84511998608532 59.666006119437135 94.86038458149996 0 0 0
1764 36 5 0.75 77.46743386577946 59.1544095299651 93.79586070360155 0 0 0
1765 36 5 0.75 76.13898853930685 55.5874899587046 93.62728494398024 0 0 0
1766 36 5 0.75 78.19187930233231 58.146620280552675 91.69012426120699 0 0 0
1767 36 5 0.75 77.47686304557375 54.57863240868744 90.56126895657597 0 0 0
1768 36 5 0.75 73.80786130892832 55.589276354791956 90.74327189802229 0 0 0
1769 36 5 0.75 73.70793345691665 52.67672099960262 93.19747965763642 0 0 0
1770 36 5 0.75 77.47404790358655 52.172128788559064 93.4765292502511 0 0 0
1771 36 5 0.75 74.5587144713865 54.438412932175154 94.41508514069712 0 0 0
1772 36 5 0.75 76.60656638010161 54.01815340048193 97.60032994855614 0 0 0
1773 36 5 0.75 78.74243661670434 53.53468771339802 94.48257125651355 0 0 0
1774 36 5 0.75 82.03468649476619 51.79871312133904 95.29717726933652 0 0 0
1775 36 5 0.75 81.61095609568244 49.61601249720019 98.39110204771691 0 0 0
1776 36 5 0.75 82.44851364967448 46.636664147039184 100.61328132764547 0 0 0
1777 36 5 0.75 82.30066195485588 44.026989107785425 103.38525464386537 0 0 0
1778 36 5 0.75 80.8426494065572 45.52671146951119 106.56976908828908 0 0 0
1779 36 5 0.75 78.9824575147416 42.52405602855769 1.1068080804716658 0 0 1
1780 36 5 0.75 79.14098263224564 43.37080391725425 104.2866686638433 0 0 0
1781 36 5 0.75 82.32666095836218 41.52395306450228 103.30856052554743 0 0 0
1782 36 5 0.75 79.60816578513578 38.89324788663268 103.76163255102995 0 0 0
1783 36 5 0.75 76.33191088243348 40.76386047799261 104.29366858887396 0 0 0
1784 36 5 0.75 73.74419929001088 39.24925440135579 101.94296291885557 0 0 0
1785 36 5 0.75 73.85444716173215 35.94282271183836 100.05313359075849 0 0 0
1786 36 5 0.75 71.3812278318455 34.049398455049385 102.24726912214165 0 0 0
1787 36 5 0.75 71.33515950968783 30.514341040427716 100.82693578625815 0 0 0
1788 36 5 0.75 69.26287315481858 27.646297834739425 99.41411681918277 0 0 0
1789 36 5 0.75 69.03871151866326 31.39483194386864 100.05781208370708 0 0 0
1790 36 5 0.75 67.53900820905382 34.840830486800535 99.43164595139255 0 0 0
1791 36 5 0.75 68.1495396332852 31.1006208222735 99.03898446180573 0 0 0
1792 36 5 0.75 68.42846675101033 34.19964779616428 96.8402731396684 0 0 0
1793 36 5 0.75 68.7368864011961 35.74703203241854 100.30820903076717 0 0 0
1794 36 5 0.75 70.72730752574641 37.988528930121014 102.65980750936298 0 0 0
1795 36 5 0.75 73.04495109664693 36.287519845922446 100.15956824606486 0 0 0
1796 36 5 0.75 73.53049014649184 32.68476017706372 101.2999517778298 0 0 0
1797 36 5 0.75 73.26441991038928 35.818330322739534 103.45077598533483 0 0 0
1798 36 5 0.75 70.86052627525396 38.57435711134298 104.5192851015599 0 0 0
1799 36 5 0.75 70.92630425955082 35.908855080989845 0.3496491107857054 0 0 1
1800 36 5 0.75 68.42027067894998 33.29572748497742 106.05447790793669 0 0 0
1801 37 5 0.75 82.57672643668347 30.981389641276753 87.96224011998785 0 0 0
1802 37 5 0.75 86.27056809131396 31.233116653178563 87.06320322308332 0 0 0
1803 37 5 0.75 83.72818063093801 33.424556563701074 85.26043947819265 0 0 0
1804 37 5 0.75 82.28462916216333 30.399219888872754 83.44947366931133 0 0 0
1805 37 5 0.75 85.76234663818794 31.907905733368366 83.06809697944733 0 0 0
1806 37 5 0.75 86.53009201647203 35.28620180444136 84.65358828825234 0 0 0
1807 37 5 0.75 88.87483457390975 32.69839962592102 86.17725564833648 0 0 0
1808 37 5 0.75 87.35988888475231 35.596830379233076 88.13177316607793 0 0 0
1809 37 5 0.75 87.00889865770864 32.012786123709915 86.88777451858218 0 0 0
1810 37 5 0.75 84.06480781367829 30.30251355215677 85.177980135304 0 0 0
1811 37 5 0.75 82.99884594636684 31.119793586913513 88.74335229571389 0 0 0
1812 37 5 0.75 80.70255195153752 28.328757415032637 89.94886089234988 0 0 0
1813 37 5 0.75 77.37433963242204 29.483269119161406 91.40013808293675 0 0 0
1814 37 5 0.75 78.91116220246174 28.759971509707505 94.81058042321679 0 0 0
1815 37 5 0.75 81.0763808555996 27.630029626505067 91.88634385195775 0 0 0
1816 37 5 0.75 79.19622838957615 26.690587885951807 95.0641695112116 0 0 0
1817 37 5 0.75 76.73801165407443 26.99449182607886 92.16918887630669 0 0 0
1818 37 5 0.75 75.23056901206856 29.68579349974549 94.40539369304007 0 0 0
1819 37 5 0.75 74.72124093481087 32.024628595193896 91.44118464069308 0 0 0
1820 37 5 0.75 71.40330527307674 30.159159210466527 91.27557389455072 0 0 0
1821 37 5 0.75 73.87386453584044 27.25893184445776 91.30901271370355 0 0 0
1822 37 5 0.75 76.10009834587822 28.310930060763223 88.40155974315789 0 0 0
1823 37 5 0.75 76.07354171950834 31.58210210295801 86.44840122016006 0 0 0
1824 37 5 0.75 75.29264324882226 35.27589968513985 85.93638852466538 0 0 0
1825 37 5 0.75 76.83737562713594 31.79665361231787 86.09370554263296 0 0 0
1826 37 5 0.75 76.92743435866082 28.04554071017963 86.75487225405163 0 0 0
1827 37 5 0.75 74.37879536882815 29.475807537102316 89.19922822307686 0 0 0
1828 37 5 0.75 76.89133057696488 30.10282679834352 91.99388628336006 0 0 0
1829 37 5 0.75 77.51247650426647 27.31260497101532 94.51280269549007 0 0 0
1830 37 5 0.75 77.0628901910788 31.08477666632544 94.8038230523304 0 0 0
1831 37 5 0.75 79.2859527034612 32.90447020703734 92.30126266665908 0 0 0
1832 37 5 0.75 81.77871130644553 34.02028520681761 89.64472141278911 0 0 0
1833 37 5 0.75 82.38201496429977 34.976622558678734 86.0063778932936 0 0 0
1834 37 5 0.75 81.55297510908997 37.79236779588981 88.43544596100946 0 0 0
1835 37 5 0.75 84.01371116734943 40.15873217637254 90.12695347514125 0 0 0
1836 37 5 0.75 81.4166541634547 41.936720585490875 92.27407995850503 0 0 0
1837 37 5 0.75 80.7884153408562 39.32913350802322 89.56817796190505 0 0 0
1838 37 5 0.75 83.9128242965722 38.81306083218867 91.68662967735638 0 0 0
1839 37 5 0.75 84.19049154294106 35.04130228789944 92.14797378306832 0 0 0
1840 37 5 0.75 86.31598828553511 37.43054958707836 90.07677583487788 0 0 0
1841 37 5 0.75 89.16637726770759 38.29185999789668 92.45364920687854 0 0 0
1842 37 5 0.75 87.5698296132196 40.27129507051681 89.61657811502513 0 0 0
1843 37 5 0.75 86.68422929859159 43.432340891877146 87.68277321328578 0 0 0
1844 37 5 0.75 84.38627492895608 45.683856180219344 85.64164984086695 0 0 0
1845 37 5 0.75 80.94199563492931 44.0983117383835 85.26870350732561 0 0 0
1846 37 5 0.75 79.26516514940826 47.13763454916527 83.69808058164013 0 0 0
1847 37 5 0.75 78.87293536920173 50.916974047472216 83.97888078829273 0 0 0
1848 37 5 0.75 77.55563972397053 54.14366735153757 85.51812817079974 0 0 0
1849 37 5 0.75 81.03973730486429 52.614576921641635 85.32052628819002 0 0 0
1850 37 5 0.75 83.0061933995657 51.549638629217185 82.23587770837744 0 0 0
1851 38 5 0.75 88.82200570975414 91.01405070214508 102.85356011058585 0 0 0
1852 38 5 0.75 87.52380552619175 92.31274782982628 106.19184740408699 0 0 0
1853 38 5 0.75 88.94490108323697 93.48190731061554 2.63676800851006 0 0 1
1854 38 5 0.75 91.5278946199488 95.2339144548065 0.4516558017781449 0 0 1
1855 38 5 0.75 89.20917473816874 92.21162135457455 0.3782901004708492 0 0 1
1856 38 5 0.75 91.86756720585677 91.4575636283454 3.001350609352343 0 0 1
1857 38 5 0.75 90.77266344573349 91.42755981720485 6.65051291423616 0 0 1
1858 38 5 0.75 93.00783944892368 93.94211865656294 4.862474302189753 0 0 1
1859 38 5 0.75 91.11631733851067 94.74620700955411 1.6544085256816317 0 0 1
1860 38 5 0.75 91.6369156314323 97.18231424363633 105.66281479146618 0 0 0
1861 38 5 0.75 94.28008779190932 95.8126644348993 1.149393995879194 0 0 1
1862 38 5 0.75 93.49165588581903 96.14381871262884 4.862184317699189 0 0 1
1863 38 5 0.75 90.2682323203087 97.68867707234523 3.543452667314213 0 0 1
1864 38 5 0.75 88.38463745503348 97.50307777797354 6.850070771274446 0 0 1
1865 38 5 0.75 86.01781470645562 100.43207786363772 7.429042769728284 0 0 1
1866 38 5 0.75 89.70779010061912 100.4905593991969 6.4820678490115 0 0 1
1867 38 5 0.75 86.89200779011082 99.7197777457357 8.93020298059966 0 0 1
1868 38 5 0.75 88.1538865078724 97.07740627551647 6.492656034378555 0 0 1
1869 38 5 0.75 89.30052220435265 99.2397535610776 3.5727963123741517 0 0 1
1870 38 5 0.75 86.49073816954198 96.67506221787337 3.78153536434192 0 0 1
1871 38 5 0.75 89.29164452476904 95.76764135588391 1.363351961769851 0 0 1
1872 38 5 0.75 91.99640496271256 95.75645158016432 4.046679329471175 0 0 1
1873 38 5 0.75 90.41965389587673 92.51233319766466 2.8196292108697207 0 0 1
1874 38 5 0.75 90.46768721330025 96.3200167382369 2.6957790785624383 0 0 1
1875 38 5 0.75 91.55914863966049 92.67215524414549 2.8296389855281774 0 0 1
1876 38 5 0.75 88.90139195673353 94.1770057960566 0.5519528283129489 0 0 1
1877 38 5 0.75 90.68043145817876 90.86546877733227 106.82279019595653 0 0 0
1878 38 5 0.75 93.0470108027527 92.15742637221909 2.623482807623745 0 0 1
1879 38 5 0.75 92.9837821242283 92.93518672492215 6.3527174433064175 0 0 1
1880 38 5 0.75 90.24447987079515 95.157507492468 4.912712731345238 0 0 1
1881 38 5 0.75 91.37945888392392 94.01592265091894 1.4594958703151235 0 0 1
1882 38 5 0.75 90.10715823983128 91.51629723753975 4.038104771220873 0 0 1
1883 38 5 0.75 87.93361160836787 88.5508647921798 5.0371069998773095 0 0 1
1884 38 5 0.75 88.8561335638508 88.62564178648184 8.73297789085484 0 0 1
1885 38 5 0.75 85.9345843798239 88.77750287707042 6.292160696864883 0 0 1
1886 38 5 0.75 89.57071092909909 88.67655878740987 7.425515896446527 0 0 1
1887 38 5 0.75 88.82038204945307 85.47648148494407 9.352329803032319 0 0 1
1888 38 5 0.75 88.96209079102883 88.25646858034011 11.953808302269351 0 0 1
1889 38 5 0.75 91.82161802077742 90.58874506808905 12.902328416457635 0 0 1
1890 38 5 0.75 95.40198964954821 91.84052679312322 12.541660268759884 0 0 1
1891 38 5 0.75 93.50087369363382 90.49437560023325 9.526741515617658 0 0 1
1892 38 5 0.75 94.50114453291414 88.6646957981165 12.715445024853253 0 0 1
1893 38 5 0.75 96.83683176394628 91.16481134290962 14.391776561714977 0 0 1
1894 38 5 0.75 98.88031082053205 90.23208389149292 17.469163902734792 0 0 1
1895 38 5 0.75 97.31263964009491 93.48644028043222 16.257688948888514 0 0 1
1896 38 5 0.75 98.0120702686927 97.19777404809652 16.760579056938 0 0 1
1897 38 5 0.75 96.42606642634365 94.36889847762066 18.760117708432134 0 0 1
1898 38 5 0.75 97.1193333871415 94.01140314078381 15.030817773430115 0 0 1
1899 38 5 0.75 95.87397349457059 91.09013708391308 17.13590289355014 0 0 1
1900 38 5 0.75 95.4317898040533 88.23092317918068 19.614908627876986 0 0 1
1901 39 5 0.75 48.62203290900749 22.09396292333738 96.84048783218444 0 0 0
1902 39 5 0.75 47.77077648369383 25.162856862806397 94.74923163395033 0 0 0
1903 39 5 0.75 45.644887115408245 26.069244558987158 97.77828358761874 0 0 0
1904 39 5 0.75 45.390235161979284 28.379001029240072 100.79760096589146 0 0 0
1905 39 5 0.75 46.33539631608946 25.41655812789713 98.59607820901523 0 0 0
1906 39 5 0.75 43.60569347455924 23.865796840713564 96.43738373616489 0 0 0
1907 39 5 0.75 44.94253074951607 22.36758382694913 93.19943317050257 0 0 0
1908 39 5 0.75 45.455982093231235 20.78585291039537 89.77151907804706 0 0 0
1909 39 5 0.75 45.19248116040531 24.31328191219197 88.35592312733087 0 0 0
1910 39 5 0.75 48.11835203620937 21.88246718875397 88.57160668822178 0 0 0
1911 39 5 0.75 49.37967224611659 23.836504645676712 91.5893722432347 0 0 0
1912 39 5 0.75 50.78430871002681 25.774727568625618 94.55355649951993 0 0 0
1913 39 5 0.75 51.298811503869885 27.52643415093875 91.2094705370171 0 0 0
1914 39 5 0.75 51.785046061845335 29.323352103916882 94.53373915205039 0 0 0
1915 39 5 0.75 53.80901946665938 26.176867001781407 93.81313998563054 0 0 0
1916 39 5 0.75 55.64696371910923 24.445535790918235 90.95997452194331 0 0 0
1917 39 5 0.75 51.97846760363669 24.839264944201055 91.91035002910776 0 0 0
1918 39 5 0.75 49.48970289520788 26.862517207692697 93.96670615204835 0 0 0
1919 39 5 0.75 51.19283739337008 29.353170104453486 96.29309413108943 0 0 0
1920 39 5 0.75 53.693739671376186 30.00382229824962 99.09277974175578 0 0 0
1921 39 5 0.75 52.540009684968105 30.307342113515784 102.71118862415196 0 0 0
1922 39 5 0.75 51.01782327729863 31.285753842822004 106.06406187380848 0 0 0
1923 39 5 0.75 48.314965316634265 33.7038041293308 0.3406410330041325 0 0 1
1924 39 5 0.75 48.625029374766655 37.45579486861734 0.9258980467702997 0 0 1
1925 39 5 0.75 48.42725762350106 33.715231994202604 0.2293524869168948 0 0 1
1926 39 5 0.75 48.80749290155986 36.97964982133427 105.19308662968321 0 0 0
1927 39 5 0.75 48.33713240852769 33.241665124865364 105.76082901453637 0 0 0
1928 39 5 0.75 47.75504609108873 35.92067063959979 103.11503896786357 0 0 0
1929 39 5 0.75 47.492268951854676 39.37493384159568 104.70095003297192 0 0 0
1930 39 5 0.75 46.984946339841116 35.615538747797785 104.34644714713303 0 0 0
1931 39 5 0.75 46.24645437578058 39.34693854437925 104.5641285131014 0 0 0
1932 39 5 0.75 48.146949324810215 40.103020154721605 0.8873654759399869 0 0 1
1933 39 5 0.75 49.73901942434323 42.53627093639856 105.31670881203046 0 0 0
1934 39 5 0.75 53.26600304388444 41.77949870605059 104.09042077944505 0 0 0
1935 39 5 0.75 55.685939199712266 44.01770710134284 106.00103120047821 0 0 0
1936 39 5 0.75 52.38734515702906 45.59186477702283 0.1856658356161205 0 0 1
1937 39 5 0.75 50.31265584781537 43.51594078054538 104.64739301722867 0 0 0
1938 39 5 0.75 49.37449440467644 40.00348352480218 105.78695307847354 0 0 0
1939 39 5 0.75 46.47602713809729 37.832227687349544 0.07924465988824636 0 0 1
1940 39 5 0.75 45.1859495721771 35.402478399882106 104.33450924018993 0 0 0
1941 39 5 0.75 45.54724667144098 34.28926055207205 1.069100420792978 0 0 1
1942 39 5 0.75 44.0054873865856 36.497115443336895 3.764365729937907 0 0 1
1943 39 5 0.75 41.87287662755256 34.177402994109094 5.90609528881177 0 0 1
1944 39 5 0.75 40.82602588166962 36.902166150912194 8.354741701663727 0 0 1
1945 39 5 0.75 38.86010621119933 33.65838861249745 7.9953434121103015 0 0 1
1946 39 5 0.75 41.73745306943955 33.07289951942888 5.567550673989345 0 0 1
1947 39 5 0.75 38.53955335156294 31.185339677074587 4.715109921833445 0 0 1
1948 39 5 0.75 40.40830260263025 29.577131260202304 7.619854648059231 0 0 1
1949 39 5 0.75 38.58385242355092 32.85231371540644 8.298575083275693 0 0 1
1950 39 5 0.75 38.78699940216646 32.95323989060707 12.101816491895292 0 0 1
1951 40 5 0.75 36.943239683461705 103.95272232453326 73.22739007919677 0 0 0
1952 40 5 0.75 34.30139042354679 105.94911680537616 75.11183736281788 0 0 0
1953 40 5 0.75 32.51553354487873 2.0733692158379284 73.61721212649387 0 1 0
1954 40 5 0.75 31.675830405569624 1.5291712694208144 77.29346663794297 0 1 0
1955 40 5 0.75 32.476134675316125 104.73112397856117 76.77856892410462 0 0 0
1956 40 5 0.75 33.97311572689746 103.29991597805176 73.58063343531123 0 0 0
1957 40 5 0.75 30.84321231866181 102.02717559851244 71.81996975890821 0 0 0
1958 40 5 0.75 32.62166775009537 105.1150800947123 70.4716218435862 0 0 0
1959 40 5 0.75 33.54218157550714 106.1301387902333 74.02667601221331 0 0 0
1960 40 5 0.75 31.036489867638142 0.9247728312522554 76.34951834069933 0 1 0
1961 40 5 0.75 29.442114154910776 4.358816033240174 75.9235918522701 0 1 0
1962 40 5 0.75 31.601400449004892 6.857075446248672 77.82419244299183 0 1 0
1963 40 5 0.75 32.83718995064535 3.883407275106208 75.7879650697426 0 1 0
1964 40 5 0.75 35.18568525467283 1.285603355464545 77.28865977622199 0 1 0
1965 40 5 0.75 33.26430185337421 0.7395545225934228 74.0442466555892 0 1 0
1966 40 5 0.75 36.27341496206934 1.3298841296695514 71.78308561442286 0 1 0
1967 40 5 0.75 35.18133769172407 4.787655486498608 72.9523950172277 0 1 0
1968 40 5 0.75 34.29788238933143 1.7405345264249945 75.06205389566145 0 1 0
1969 40 5 0.75 34.40287942885162 0.9552155550553891 78.78876152236079 0 1 0
1970 40 5 0.75 37.344554700249674 106.52054108005315 80.81477292839021 0 0 0
1971 40 5 0.75 37.62567803352094 2.9734750905711707 79.0109202000618 0 1 0
1972 40 5 0.75 35.21709951601857 0.46864852640599963 80.57319207412169 0 1 0
1973 40 5 0.75 37.45741666659646 104.29940437226205 80.93486030347131 0 0 0
1974 40 5 0.75 40.033440188729536 0.1916453353965295 80.57058215941952 0 1 0
1975 40 5 0.75 38.208818946809295 3.370385292067013 81.61100015782208 0 1 0
1976 40 5 0.75 40.82514884961425 2.721677133769262 84.30360030731448 0 1 0
1977 40 5 0.75 38.229682806948 0.16317083071022864 85.41432147780398 0 1 0
1978 40 5 0.75 41.41274514247027 1.2705108067867599 83.63724175377293 0 1 0
1979 40 5 0.75 38.76611000903691 105.96140716192104 82.0031923526176 0 0 0
1980 40 5 0.75 42.03464091778782 104.11726663892094 82.66042247211064 0 0 0
1981 40 5 0.75 44.27354317715782 104.05007086466371 79.57839369208442 0 0 0
1982 40 5 0.75 42.758235785947626 102.65700457606773 76.37225741523635 0 0 0
1983 40 5 0.75 44.226697198573866 100.0410803003629 78.72101480232551 0 0 0
1984 40 5 0.75 46.336813475392006 102.12295438064399 81.11461243186999 0 0 0
1985 40 5 0.75 46.033292744089735 98.71221427648813 79.44403555319226 0 0 0
1986 40 5 0.75 42.30572870243155 98.06670479428256 78.99161558930959 0 0 0
1987 40 5 0.75 41.50024224491051 95.47681567786965 81.66738948323938 0 0 0
1988 40 5 0.75 42.37343504145691 92.11494112911876 80.10168393668202 0 0 0
1989 40 5 0.75 40.244973242815064 94.88112807812622 78.57395354984568 0 0 0
1990 40 5 0.75 37.88633980888633 96.32894426167464 81.1924983027588 0 0 0
1991 40 5 0.75 40.180306597954136 95.51418127357366 78.26163193871648 0 0 0
1992 40 5 0.75 42.224953309422396 98.3509749590268 79.7742857032823 0 0 0
1993 40 5 0.75 43.05230279466587 94.74061891841674 78.88158077482173 0 0 0
1994 40 5 0.75 41.492843598710586 92.88771217558191 75.94033552518549 0 0 0
1995 40 5 0.75 38.88412884711724 90.97058912517767 77.94915272802601 0 0 0
1996 40 5 0.75 39.226191247803904 90.52539852279533 74.18074475627097 0 0 0
1997 40 5 0.75 40.48629231676568 92.70232440142152 77.04242940258841 0 0 0
1998 40 5 0.75 37.8754659248068 90.28764033070588 78.40953817283427 0 0 0
1999 40 5 0.75 36.92307503407516 88.42095143038928 81.59144391321789 0 0 0
2000 40 5 0.75 33.58606803363386 89.75219713493937 80.32326839180033 0 0 0
2001 41 5 0.75 6.415657765535034 71.62918887031736 85.61760251782731 0 0 0
2002 41 5 0.75 4.805871711164434 74.11000595813316 88.01973395385555 0 0 0
2003 41 5 0.75 2.6948408536291013 71.90694347165594 90.30143603765406 0 0 0
2004 41 5 0.75 105.79041353889177 72.20702775430263 90.44041937397735 -1 0 0
2005 41 5 0.75 104.34838662974869 75.71473476902067 90.80463070302295 -1 0 0
2006 41 5 0.75 101.90436015570965 75.48692198493674 93.71855176056796 -1 0 0
2007 41 5 0.75 105.3681077841543 75.75357728605454 92.15411981355659 -1 0 0
2008 41 5 0.75 1.175168440498513 78.31982874104916 91.34796781543034 0 0 0
2009 41 5 0.75 2.6862850265759937 80.79404985884807 88.8759531464772 0 0 0
2010 41 5 0.75 1.9548174732197208 81.88585122692783 92.45212777742661 0 0 0
2011 41 5 0.75 0.4381724556798121 81.91346265116837 88.95711339977052 0 0 0
2012 41 5 0.75 105.47053368040464 82.01791855113235 85.63296935206044 -1 0 0
2013 41 5 0.75 106.71649394665641 80.6153660658244 88.94907090974506 -1 0 0
2014 41 5 0.75 3.2836215731894116 82.16879231434953 89.32720555052923 0 0 0
2015 41 5 0.75 2.2223624356689724 84.11558731740986 92.4255628990429 0 0 0
2016 41 5 0.75 1.5455723102154748 86.24068184034049 89.33654551568313 0 0 0
2017 41 5 0.75 106.36743670851898 84.40478467514434 86.71672471656437 -1 0 0
2018 41 5 0.75 103.14140705886713 84.86692639664346 84.74308398714652 -1 0 0
2019 41 5 0.75 101.70637034272784 81.8200626561043 82.9616825809722 -1 0 0
2020 41 5 0.75 100.23382101767366 78.887120850845 81.0263400138165 -1 0 0
2021 41 5 0.75 102.976685806567 81.16859985368319 79.68931110258924 -1 0 0
2022 41 5 0.75 100.72098060318037 80.9224578511258 82.74991694947504 -1 0 0
2023 41 5 0.75 103.47668878974417 83.44687747420099 82.00864914554849 -1 0 0
2024 41 5 0.75 100.20426721349412 82.01972649363681 80.67801128874154 -1 0 0
2025 41 5 0.75 96.96261338075195 83.08234446221924 82.3746619544691 -1 0 0
2026 41 5 0.75 96.18856943982978 79.86976907819653 80.47826658970652 -1 0 0
2027 41 5 0.75 99.09934246745631 77.67808427402677 81.59182758974795 -1 0 0
2028 41 5 0.75 99.47602136836107 81.26871127998724 80.37461326610544 -1 0 0
2029 41 5 0.75 98.18394160806345 81.4474233986709 76.79485183946471 -1 0 0
2030 41 5 0.75 94.41658513788941 80.88279266932568 76.72914517224639 -1 0 0
2031 41 5 0.75 97.0699878351585 78.35605172502918 75.6845714187274 -1 0 0
2032 41 5 0.75 95.7159479043046 78.39431708082512 79.2456403071651 -1 0 0
2033 41 5 0.75 93.6748185887589 76.86280402979581 82.07483787745723 -1 0 0
2034 41 5 0.75 90.41773993968623 75.37494120196722 80.77337605346051 -1 0 0
2035 41 5 0.75 88.50299689117199 75.44681654979819 84.066504200457 -1 0 0
2036 41 5 0.75 84.7087979971578 75.21517050957824 84.32437018253292 -1 0 0
2037 41 5 0.75 87.26709943962557 75.99906058912606 87.03669576635464 -1 0 0
2038 41 5 0.75 85.63113245569488 73.59043669292531 84.57941211277708 -1 0 0
2039 41 5 0.75 84.60216393541572 75.76872304505217 81.62773591908436 -1 0 0
2040 41 5 0.75 83.88825803475635 72.93229461924592 84.06927480885902 -1 0 0
2041 41 5 0.75 87.35481838906651 74.23693695419418 83.17654434125654 -1 0 0
2042 41 5 0.75 86.88744451859826 70.94266710097855 81.32035259485795 -1 0 0
2043 41 5 0.75 84.7076089069555 72.79197352832 78.80152698676048 -1 0 0
2044 41 5 0.75 87.40792168115794 73.71015940146971 76.2753944439537 -1 0 0
2045 41 5 0.75 89.64194359279233 75.18330127713456 73.56336584666714 -1 0 0
2046 41 5 0.75 93.3988264611616 75.81643813337419 73.53067281033745 -1 0 0
2047 41 5 0.75 95.12608685583906 79.21080725175094 73.63521857633943 -1 0 0
2048 41 5 0.75 94.59790514403225 82.80731285505631 74.7763896961571 -1 0 0
2049 41 5 0.75 93.00237844887576 81.78293066879462 78.08108872958097 -1 0 0
2050 41 5 0.75 91.72318035316272 82.97134038415349 74.69472865121293 -1 0 0
2051 42 5 0.75 65.62738601967186 11.243821668827932 94.46071841619988 0 0 0
2052 42 5 0.75 64.10602752391043 8.76214542724942 96.91893959407612 0 0 0
2053 42 5 0.75 60.86799866634301 9.90724262909893 95.2696908208836 0 0 0
2054 42 5 0.75 63.91606519260733 7.622678710163271 95.3481647131302 0 0 0
2055 42 5 0.75 66.45943388867082 10.019880208363428 96.8650037464199 0 0 0
2056 42 5 0.75 69.18303786632718 10.614664373315183 99.46198529622288 0 0 0
2057 42 5 0.75 72.33256000848128 8.806993322840686 100.61478000880507 0 0 0
2058 42 5 0.75 75.72301033316904 7.098153057412826 100.29727167336009 0 0 0
2059 42 5 0.75 73.3122625747849 9.148810413929532 98.1761399821137 0 0 0
2060 42 5 0.75 71.5085946094571 5.944743860756329 97.17772153592637 0 0 0
2061 42 5 0.75 70.08563787593208 7.950749260077178 100.08757315970573 0 0 0
2062 42 5 0.75 70.67389282638598 4.309893360338407 99.13142231877954 0 0 0
2063 42 5 0.75 69.85447913847958 7.925332090742055 100.01077662437477 0 0 0
2064 42 5 0.75 72.91338764413369 9.772674182102136 98.6892222548817 0 0 0
2065 42 5 0.75 74.17697932597379 12.407307153816783 96.24419768119363 0 0 0
2066 42 5 0.75 73.44140467382375 9.153021593193198 98.08394098422022 0 0 0
2067 42 5 0.75 72.53138822138725 7.2734235638397955 94.89723715355981 0 0 0
2068 42 5 0.75 71.75410484465121 8.66139952064412 91.43523581104377 0 0 0
2069 42 5 0.75 70.44229615248287 12.230554456876286 91.19776792622321 0 0 0
2070 42 5 0.75 70.75074294823648 10.630536804041702 87.7538015958409 0 0 0
2071 42 5 0.75 73.92992180335193 12.04882712847252 86.20545591001596 0 0 0
2072 42 5 0.75 71.88256740028217 14.790175886754806 87.88159639747369 0 0 0
2073 42 5 0.75 69.51583736253986 13.618589513707844 85.13531267233913 0 0 0
2074 42 5 0.75 71.4276738263503 15.579320970319358 87.78418290145547 0 0 0
2075 42 5 0.75 72.37433549679427 15.877186494367956 91.46266190931938 0 0 0
2076 42 5 0.75 75.47374002237615 15.674471405649342 93.66917458311221 0 0 0
2077 42 5 0.75 72.61028081780478 15.143211294107946 91.2126599632411 0 0 0
2078 42 5 0.75 71.1187165287687 17.682662189880386 93.62979155246681 0 0 0
2079 42 5 0.75 69.25103481615155 20.523589028270496 95.34938444593615 0 0 0
2080 42 5 0.75 70.39054153601609 24.15915254243452 95.36677323148531 0 0 0
2081 42 5 0.75 70.91779032031245 23.908281416744263 91.60178021718198 0 0 0
2082 42 5 0.75 72.9989451433488 25.12348978528725 88.65082050488911 0 0 0
2083 42 5 0.75 73.02880833723857 21.448298190917942 87.6467413574471 0 0 0
2084 42 5 0.75 74.74530790556081 23.669132210975576 90.22310031677405 0 0 0
2085 42 5 0.75 77.43157762539003 22.866782247079346 87.64312172621088 0 0 0
2086 42 5 0.75 73.82396990706877 22.175119962078277 88.6544920017361 0 0 0
2087 42 5 0.75 75.24643616658645 18.9894895179653 90.18565117506667 0 0 0
2088 42 5 0.75 76.5478005469018 15.551082331455323 91.18560455868162 0 0 0
2089 42 5 0.75 77.08685307539037 19.257407138860025 91.88466020278057 0 0 0
2090 42 5 0.75 80.20031279649795 17.075284264321127 91.63806676115091 0 0 0
2091 42 5 0.75 80.69580385784543 16.260300445389447 95.32675080603796 0 0 0
2092 42 5 0.75 77.12811816450203 15.719489649878216 94.10394972778718 0 0 0
2093 42 5 0.75 73.48377146206074 14.617256323594805 94.24508373090305 0 0 0
2094 42 5 0.75 77.01193548563397 16.045546911886134 94.07732015272819 0 0 0
2095 42 5 0.75 79.79433675480408 18.46895181457401 93.12787196828161 0 0 0
2096 42 5 0.75 78.29638360522742 21.24028186591762 90.98498463848726 0 0 0
2097 42 5 0.75 76.0785479890947 18.355753134965127 92.11494002704153 0 0 0
2098 42 5 0.75 77.96678490569896 17.84688825826275 88.84512078371453 0 0 0
2099 42 5 0.75 80.22341775614022 14.92490780004831 89.78625753261036 0 0 0
2100 42 5 0.75 81.3948986908265 14.149248395500209 86.24477692306262 0 0 0
2101 43 5 0.75 51.53728524792431 73.21814557157597 52.86237889014486 0 0 0
2102 43 5 0.75 48.99114176127466 75.84809013043835 53.91909311958522 0 0 0
2103 43 5 0.75 48.089866998362744 74.23425174308868 57.25065873671701 0 0 0
2104 43 5 0.75 50.486856717091996 76.82230019952661 58.69029253579074 0 0 0
2105 43 5 0.75 51.26216584946171 73.11738000583202 59.124529922041845 0 0 0
2106 43 5 0.75 54.55323033470739 74.12998080876211 57.49369143590661 0 0 0
2107 43 5 0.75 54.09127670446405 76.09469418613637 60.7251926641706 0 0 0
2108 43 5 0.75 55.53184402088062 77.91628339832752 57.704815444533764 0 0 0
2109 43 5 0.75 56.65398773055113 80.53548993718945 60.23397550305711 0 0 0
2110 43 5 0.75 57.79821655666744 79.46470940077195 56.76118563951599 0 0 0
2111 43 5 0.75 56.14504741110391 77.29306482515058 54.10278544140228 0 0 0
2112 43 5 0.75 59.08269247932914 76.36513182002089 56.34449947114001 0 0 0
2113 43 5 0.75 62.81436157117534 77.0562770786985 56.68074940848905 0 0 0
2114 43 5 0.75 64.36509319158294 75.02729850090326 59.508217776537755 0 0 0
2115 43 5 0.75 63.218772593313126 72.48823926431567 62.10729978353206 0 0 0
2116 43 5 0.75 65.74802698110865 69.70443542736082 61.4995099850223 0 0 0
2117 43 5 0.75 65.72550402122413 65.92551755018462 61.98466191363452 0 0 0
2118 43 5 0.75 67.00564417923755 67.8220693302175 65.0310421462213 0 0 0
2119 43 5 0.75 70.21270167362705 69.45814233906057 66.27769660412666 0 0 0
2120 43 5 0.75 68.22563737406672 68.62231396728735 69.41920363139108 0 0 0
2121 43 5 0.75 69.92608772014702 68.56820579013286 66.01015084129229 0 0 0
2122 43 5 0.75 71.45582242466992 72.00008560153094 66.641191801846 0 0 0
2123 43 5 0.75 75.12999003532182 71.81184732653358 65.65065723876276 0 0 0
2124 43 5 0.75 78.26651081415113 71.18307055823064 63.58112174024757 0 0 0
2125 43 5 0.75 77.18401559726404 72.03671793178745 60.02927851918106 0 0 0
2126 43 5 0.75 74.21102266865613 73.35036230016425 58.04137723393592 0 0 0
2127 43 5 0.75 77.71171716189652 71.87207402380332 58.316880114084725 0 0 0
2128 43 5 0.75 79.14546529407895 72.61107134424397 61.76859697006306 0 0 0
2129 43 5 0.75 78.48806787715884 74.10684954763515 65.2104825292423 0 0 0
2130 43 5 0.75 80.6494425138611 73.22314140891022 68.22106712452799 0 0 0
2131 43 5 0.75 80.3733245375175 76.20427629940008 65.8646517053279 0 0 0
2132 43 5 0.75 81.35376487084802 74.39380636702828 62.65887015058085 0 0 0
2133 43 5 0.75 83.09081577103204 71.96334339310415 60.29421290215058 0 0 0
2134 43 5 0.75 79.36750849179253 71.15934565116815 60.37588624739819 0 0 0
2135 43 5 0.75 79.92398914814346 67.78949355973565 58.68753611754502 0 0 0
2136 43 5 0.75 78.28628100773996 70.99531568732934 59.93522058610539 0 0 0
2137 43 5 0.75 77.00108926476328 68.07199820220839 62.01334403406768 0 0 0
2138 43 5 0.75 76.72044663469318 67.28133837177552 65.72982042262811 0 0 0
2139 43 5 0.75 77.14906257122955 68.61293034435346 62.18591703829142 0 0 0
2140 43 5 0.75 79.21267198124333 65.69597573220614 60.86342242825515 0 0 0
2141 43 5 0.75 77.67664145988623 68.64877195751613 59.00931760671606 0 0 0
2142 43 5 0.75 79.49282284193436 71.07742220109823 56.70296915475778 0 0 0
2143 43 5 0.75 79.62280226909016 67.27027266246591 56.772379089263076 0 0 0
2144 43 5 0.75 81.98148883615853 65.91127418052832 54.106704539656064 0 0 0
2145 43 5 0.75 85.0597590932088 66.73452511877386 56.19539075764994 0 0 0
2146 43 5 0.75 84.17265880603672 65.58175181598251 52.67398950347984 0 0 0
2147 43 5 0.75 82.40588717590258 66.97334940849399 49.59859129390284 0 0 0
2148 43 5 0.75 79.74466295702491 64.77559498788709 47.98494289243436 0 0 0
2149 43 5 0.75 78.53040409099648 66.40459573060826 44.76189588897859 0 0 0
2150 43 5 0.75 76.67291223037492 67.05768962968422 41.50010307723926 0 0 0
2151 44 5 0.75 17.600340063953077 17.015184709443382 92.59664472142084 0 0 0
2152 44 5 0.75 19.06819906571013 14.272965806470278 90.39625261110555 0 0 0
2153 44 5 0.75 22.568010203384258 12.795423000805982 90.68657873470073 0 0 0
2154 44 5 0.75 20.4774668126807 14.653938822466516 93.27340058249449 0 0 0
2155 44 5 0.75 21.28851987049194 11.547633732199959 95.32502472536255 0 0 0
2156 44 5 0.75 17.72718746501473 12.86435724424279 95.0099839493803 0 0 0
2157 44 5 0.75 20.173090664724267 10.410154928525184 96.59445500660318 0 0 0
2158 44 5 0.75 18.768929113655897 7.545371898543613 94.5118008035174 0 0 0
2159 44 5 0.75 22.20755234123093 6.309787607583588 95.59129223873785 0 0 0
2160 44 5 0.75 20.821720778276443 7.741457398248639 98.83873623203723 0 0 0
2161 44 5 0.75 18.35934363883551 5.962101592260639 101.13801693235537 0 0 0
2162 44 5 0.75 16.9249874470717 2.896173439593172 102.8869614362862 0 0 0
2163 44 5 0.75 14.99935320184923 106.55435036261709 102.29060563564593 0 -1 0
2164 44 5 0.75 16.032205610110744 2.1599509693920327 99.6044675288584 0 0 0
2165 44 5 0.75 19.61175644139658 1.1450687146254344 98.78414451004157 0 0 0
2166 44 5 0.75 20.57161313069031 4.81088333894469 99.17984423981802 0 0 0
2167 44 5 0.75 17.372047233318177 6.459000310365073 97.92980883356373 0 0 0
2168 44 5 0.75 14.50043340939513 8.581637089618866 99.25809613291321 0 0 0
2169 44 5 0.75 17.450462425996708 7.420014860481606 97.14526329570556 0 0 0
2170 44 5 0.75 19.78583896710526 4.762653520617089 95.73085631020481 0 0 0
2171 44 5 0.75 22.52270226000479 2.632697798737721 97.30850263901634 0 0 0
2172 44 5 0.75 21.881476244042215 2.5133572062734655 101.0622590268821 0 0 0
2173 44 5 0.75 23.866252146779686 3.1255315031162607 104.25631714253963 0 0 0
2174 44 5 0.75 24.704471993495336 0.5610729751099934 101.56614243692887 0 0 0
2175 44 5 0.75 28.396596317262766 1.49760085381611 101.65119248249681 0 0 0
2176 44 5 0.75 31.007583896621302 3.6593477124615514 103.39064480422685 0 0 0
2177 44 5 0.75 30.866735213326503 6.9332965371723345 101.44706029575056 0 0 0
2178 44 5 0.75 30.076280733043063 7.826449516799737 97.82855791637003 0 0 0
2179 44 5 0.75 28.672354667236874 11.22104277327859 98.83941311115228 0 0 0
2180 44 5 0.75 31.990657375195173 13.011101340850988 98.29109070324131 0 0 0
2181 44 5 0.75 30.469752337887176 10.956269945344165 95.46609233093547 0 0 0
2182 44 5 0.75 30.8378854312678 7.49373497858562 93.91966754145089 0 0 0
2183 44 5 0.75 32.64100967223075 10.391065899888416 95.61386838672117 0 0 0
2184 44 5 0.75 31.43364114963357 9.369513722807438 99.08010444333108 0 0 0
2185 44 5 0.75 32.81113815111797 11.801760362047457 96.49113200299745 0 0 0
2186 44 5 0.75 36.21860939927654 10.275929124981667 97.2507889841192 0 0 0
2187 44 5 0.75 39.01474712578989 12.803054602313258 97.80877700925085 0 0 0
2188 44 5 0.75 41.46647961924065 9.967206290063306 98.48927104336634 0 0 0
2189 44 5 0.75 40.316446130902946 13.588763526222898 98.76828029217704 0 0 0
2190 44 5 0.75 40.821889812097886 15.281226736486484 95.39245521272693 0 0 0
2191 44 5 0.75 42.806209342791846 12.093315622929493 94.74763063800421 0 0 0
2192 44 5 0.75 45.42042768579841 13.594555327348315 92.41777188585537 0 0 0
2193 44 5 0.75 42.4766084256002 15.96966041987097 91.96071175550159 0 0 0
2194 44 5 0.75 44.09912119570918 18.100848039119214 89.25117459163093 0 0 0
2195 44 5 0.75 40.85566598010715 19.92411215589088 88.43153672959869 0 0 0
2196 44 5 0.75 42.84643906371848 23.0905595165445 89.15716310851442 0 0 0
2197 44 5 0.75 44.97239295290725 24.982570113728926 91.69028686411441 0 0 0
2198 44 5 0.75 41.39781567620919 26.13083241208727 92.33835398030124 0 0 0
2199 44 5 0.75 44.16364082404874 23.58061328567603 91.7361134479019 0 0 0
2200 44 5 0.75 42.090141637013495 22.88953380612491 88.61535868754223 0 0 0
2201 45 5 0.75 39.54996431632898 29.58414673354412 39.534066507868104 0 0 0
2202 45 5 0.75 41.77445219044054 32.123728184726495 37.76820135142465 0 0 0
2203 45 5 0.75 39.16186203479925 30.042390141904214 39.600823688445274 0 0 0
2204 45 5 0.75 36.18785998571434 27.687351139113076 39.954664199652356 0 0 0
2205 45 5 0.75 38.08566064782093 25.68342403366728 42.5812073275997 0 0 0
2206 45 5 0.75 36.98670302494548 22.70666519862147 40.47234531667991 0 0 0
2207 45 5 0.75 38.33810324700686 25.485471478029506 42.701258303167926 0 0 0
2208 45 5 0.75 36.72764093296029 25.381062998577274 39.249938265203575 0 0 0
2209 45 5 0.75 35.441052907870905 28.66203670356211 37.80218041221342 0 0 0
2210 45 5 0.75 33.133966540295916 25.726977200767944 38.5630208735503 0 0 0
2211 45 5 0.75 33.05154644311627 29.392516739660994 37.527102529088424 0 0 0
2212 45 5 0.75 31.52789795418384 31.472313119545465 34.72192119798105 0 0 0
2213 45 5 0.75 28.820947110024363 31.735267741662348 37.390136330614034 0 0 0
2214 45 5 0.75 32.43779365015709 32.8493304063376 36.95038016601072 0 0 0
2215 45 5 0.75 31.726268665006216 36.30761974783803 38.38218567863126 0 0 0
2216 45 5 0.75 31.05878925481203 36.05933320172433 42.12503553241724 0 0 0
2217 45 5 0.75 33.28571229399874 39.015673020196374 43.02889871634283 0 0 0
2218 45 5 0.75 36.099855457793865 36.71179611498677 41.893623657466364 0 0 0
2219 45 5 0.75 39.23620733454874 37.96232858750296 40.12852721807311 0 0 0
2220 45 5 0.75 40.26405364063659 40.72347292537864 42.544249453032805 0 0 0
2221 45 5 0.75 40.43056063781798 41.178336105509544 46.32333332445599 0 0 0
2222 45 5 0.75 42.596516974597904 44.15794754535478 45.35037453051542 0 0 0
2223 45 5 0.75 45.01808378933743 45.56401591532178 42.76675576979808 0 0 0
2224 45 5 0.75 41.262472918645024 46.18779779444173 42.617145759375695 0 0 0
2225 45 5 0.75 38.93627639250814 43.89668155475064 40.65355310864275 0 0 0
2226 45 5 0.75 35.36732208320422 44.97734098818285 39.871990361939076 0 0 0
2227 45 5 0.75 34.44235613108799 41.45793534497006 38.74313168790248 0 0 0
2228 45 5 0.75 36.30244179872554 38.83650902010561 40.78868915039457 0 0 0
2229 45 5 0.75 37.53846838335166 42.40023231845539 40.25183299191592 0 0 0
2230 45 5 0.75 39.866230692173346 45.40992474872635 40.053403889214685 0 0 0
2231 45 5 0.75 38.622768503397715 41.888664400338094 39.2980050912583 0 0 0
2232 45 5 0.75 38.80259267026033 41.206955111651034 43.04220536831746 0 0 0
2233 45 5 0.75 35.19942002467139 42.44493731004846 43.016769910180365 0 0 0
2234 45 5 0.75 33.05940513779993 41.07598176994269 45.856205948055184 0 0 0
2235 45 5 0.75 35.19698729343041 39.601723681483584 43.06812316296019 0 0 0
2236 45 5 0.75 35.091711507219756 43.34136182343768 42.34692722836278 0 0 0
2237 45 5 0.75 37.883772863463605 42.98482023955478 39.7791711102838 0 0 0
2238 45 5 0.75 35.621506539847125 40.41453097114337 41.450058346969726 0 0 0
2239 45 5 0.75 35.76381291438152 44.092392731786724 40.465588050127685 0 0 0
2240 45 5 0.75 36.0613313999257 47.88471607262408 40.251423558907234 0 0 0
2241 45 5 0.75 38.50114176161564 45.500956085426616 38.55403918215966 0 0 0
2242 45 5 0.75 36.2021655136563 45.133646392372185 35.538099560630904 0 0 0
2243 45 5 0.75 36.89896000430015 42.11002911120096 37.749053195334966 0 0 0
2244 45 5 0.75 36.929168149538896 39.81522278253592 40.790278504627274 0 0 0
2245 45 5 0.75 34.356978867381244 37.68664853553225 42.62579313865939 0 0 0
2246 45 5 0.75 31.734137670943486 38.651037963885436 40.03605240091177 0 0 0
2247 45 5 0.75 34.209832060525066 36.50151463547503 38.095282772642165 0 0 0
2248 45 5 0.75 37.613742518646745 37.06934472408831 39.709922851283615 0 0 0
2249 45 5 0.75 34.692655568280635 36.21378008069449 37.41833820973637 0 0 0
2250 45 5 0.75 33.83843016497185 32.55728510155976 36.77301392853779 0 0 0
2251 46 5 0.75 69.88823628903945 67.8514106382258 2.5990670144048025 0 0 0
2252 46 5 0.75 67.03293618894949 67.35774258072239 0.12527373536407982 0 0 0
2253 46 5 0.75 69.28113587256449 69.1785964209631 2.6044246938726734 0 0 0
2254 46 5 0.75 68.81664220468117 65.4191547837996 3.0130127618062104 0 0 0
2255 46 5 0.75 68.9472177590932 63.93517309241328 6.519698998728498 0 0 0
2256 46 5 0.75 71.761707505351 64.61929987871031 8.99491979867356 0 0 0
2257 46 5 0.75 73.31843184335959 64.87053445715993 5.526549789282559 0 0 0
2258 46 5 0.75 74.74527458682977 61.41094871758065 6.2417324903500315 0 0 0
2259 46 5 0.75 72.3027867178679 59.51596205335061 4.014766268701301 0 0 0
2260 46 5 0.75 75.63024738731076 61.37156608555527 3.9857978552698174 0 0 0
2261 46 5 0.75 78.3483069555601 61.02589029727335 1.3383914956710772 0 0 0
2262 46 5 0.75 76.44552404682676 58.855318511865555 105.74279225141771 0 0 -1
2263 46 5 0.75 78.48935952484679 60.75614135828386 1.4449965212796845 0 0 0
2264 46 5 0.75 80.35714441776285 57.65333921716343 2.6282540870078486 0 0 0
2265 46 5 0.75 83.77184244392205 55.9783119805646 2.404153335566443 0 0 0
2266 46 5 0.75 82.22913235821763 58.83964722648933 0.4169678379606778 0 0 0
2267 46 5 0.75 78.76459812917548 58.863761162439474 2.0020612402207387 0 0 0
2268 46 5 0.75 78.4199136280623 57.53272440576812 5.555318020567771 0 0 0
2269 46 5 0.75 79.00269330079277 58.44622441117737 1.9026497365362927 0 0 0
2270 46 5 0.75 77.58502919962861 58.29925983855161 5.436023465801757 0 0 0
2271 46 5 0.75 79.2849483696675 57.018047752815214 2.2761389098887954 0 0 0
2272 46 5 0.75 82.07863190949266 55.058850434469164 3.9711250889167165 0 0 0
2273 46 5 0.75 83.77977662367663 54.35268349787888 0.6359287050330606 0 0 0
2274 46 5 0.75 83.82076945048932 57.005498046210626 3.370338067273712 0 0 0
2275 46 5 0.75 84.76678453136232 57.82453672530886 106.66287415112713 0 0 -1
2276 46 5 0.75 88.38705403496199 56.64345192416668 106.5412706404165 0 0 -1
2277 46 5 0.75 84.64720123121545 56.29057828566964 105.90481074257296 0 0 -1
2278 46 5 0.75 81.41489520052068 54.61839284812108 104.77693947935859 0 0 -1
2279 46 5 0.75 80.04734248993397 52.47960729839896 0.7267843784154078 0 0 0
2280 46 5 0.75 83.39227156988744 51.07101598597076 1.8858443270951364 0 0 0
2281 46 5 0.75 85.97208028246953 48.58583511906608 3.183751513783175 0 0 0
2282 46 5 0.75 82.59100628458947 47.80022930467024 4.754503602830554 0 0 0
2283 46 5 0.75 82.27889575280192 49.57371024789629 8.112099820359001 0 0 0
2284 46 5 0.75 80.83497303776159 53.02923950129853 7.411739361829311 0 0 0
2285 46 5 0.75 84.41613978629145 54.3202231494651 7.254558130791625 0 0 0
2286 46 5 0.75 87.10793069288056 53.967970965022936 4.581305409150829 0 0 0
2287 46 5 0.75 88.96567394583865 55.77138397576765 7.376406752352073 0 0 0
2288 46 5 0.75 91.79732837332985 53.338487543448565 6.615586042277396 0 0 0
2289 46 5 0.75 93.84424112043526 52.27862773409934 3.581950370304963 0 0 0
2290 46 5 0.75 94.5575741778008 54.72804217400544 0.7521756706426359 0 0 0
2291 46 5 0.75 93.87494127435133 58.18008473081658 2.2128311759185912 0 0 0
2292 46 5 0.75 90.85321746317923 56.57122975391184 3.885215961870802 0 0 0
2293 46 5 0.75 89.32106218056278 57.17125805570608 0.4488565180703703 0 0 0
2294 46 5 0.75 90.50892717434499 53.571478449985534 0.8318232878888476 0 0 0
2295 46 5 0.75 90.21148007730936 57.36968362946719 0.8673569201797069 0 0 0
2296 46 5 0.75 90.62833951254328 56.54107348474411 4.562723402589599 0 0 0
2297 46 5 0.75 87.20602959369671 56.92256716867293 6.1931703929842055 0 0 0
2298 46 5 0.75 86.24801846279149 60.569840688979205 5.649377655689607 0 0 0
2299 46 5 0.75 84.94198469713663 64.09881902922706 5.052144303447067 0 0 0
2300 46 5 0.75 82.60414318926365 67.10559584460205 4.9526944839921665 0 0 0
2301 47 5 0.75 1.812053308772953 96.85937759331689 73.2147233461247 0 0 0
2302 47 5 0.75 4.316200819539983 98.80090084843825 75.33033973246279 0 0 0
2303 47 5 0.75 7.632659025573906 99.92773211647565 73.83118788524935 0 0 0
2304 47 5 0.75 7.320340534126806 97.80712415495739 70.68133407380896 0 0 0
2305 47 5 0.75 10.910418001394426 98.03764847647687 69.42662202867457 0 0 0
2306 47 5 0.75 10.289702754839567 95.36113305491958 72.06614429242994 0 0 0
2307 47 5 0.75 7.602736971406935 98.03529833110903 71.68515222652198 0 0 0
2308 47 5 0.75 10.34464734735684 98.04875385869943 74.33049652151186 0 0 0
2309 47 5 0.75 7.049050308603263 97.51622361873048 72.49431796219982 0 0 0
2310 47 5 0.75 7.052254945709878 95.40745543210876 75.66751610687865 0 0 0
2311 47 5 0.75 9.441108817790886 94.02887229560126 73.03902115470912 0 0 0
2312 47 5 0.75 9.155441558943078 96.36574625154735 76.03460362415363 0 0 0
2313 47 5 0.75 8.116443447307462 94.45170427228618 72.90841965233693 0 0 0
2314 47 5 0.75 6.437285657715532 93.24846702503655 69.70705287477396 0 0 0
2315 47 5 0.75 8.097996274961515 90.92932154194517 72.23286056223225 0 0 0
2316 47 5 0.75 4.84532288215105 89.00885364466318 71.73484564758397 0 0 0
2317 47 5 0.75 5.936665172171704 87.9559696459196 68.23963359518969 0 0 0
2318 47 5 0.75 3.6061895459702433 86.01228034733225 65.93592891224138 0 0 0
2319 47 5 0.75 1.4698157263241898 82.86904162841657 65.66749408096905 0 0 0
2320 47 5 0.75 4.3965689461919855 84.28712553665402 67.65224938558256 0 0 0
2321 47 5 0.75 2.976896474064756 81.90841359958323 65.0364589520193 0 0 0
2322 47 5 0.75 1.2436574683149109 82.87320396983547 61.783589128245865 0 0 0
2323 47 5 0.75 4.054543860365723 80.30182786003168 61.72842942453147 0 0 0
2324 47 5 0.75 4.368276431747155 79.20266301487318 65.36291818043952 0 0 0
2325 47 5 0.75 6.292421953682334 76.3170242251467 63.78594234497385 0 0 0
2326 47 5 0.75 2.759193609532642 75.61359481460171 62.54594858189374 0 0 0
2327 47 5 0.75 0.44942133056369116 78.09089843591669 60.8012369188599 0 0 0
2328 47 5 0.75 0.9912952955437212 78.73516057636937 57.08540606958054 0 0 0
2329 47 5 0.75 104.99363658828699 79.7373497459259 59.35834537282658 -1 0 0
2330 47 5 0.75 102.5560560497443 81.46975980333681 61.719077570916696 -1 0 0
2331 47 5 0.75 103.39235129435373 81.4876002114293 58.00203681465874 -1 0 0
2332 47 5 0.75 106.3046160413566 79.10585869626311 57.4002715794563 -1 0 0
2333 47 5 0.75 104.21431454040489 76.49921638989125 59.231160850207374 -1 0 0
2334 47 5 0.75 0.8964069133845545 75.60516766423788 58.25729791982571 0 0 0
2335 47 5 0.75 4.663682060036059 76.13540538053762 58.050934324113854 0 0 0
2336 47 5 0.75 6.8577833460664905 76.80945683995012 55.00993544599773 0 0 0
2337 47 5 0.75 3.5537478666306135 74.94546323798524 54.65641401459234 0 0 0
2338 47 5 0.75 106.81618147181626 73.95082926553626 55.255504167018344 -1 0 0
2339 47 5 0.75 0.43330850222065376 74.75074625344514 58.945740423483734 0 0 0
2340 47 5 0.75 2.500441248585851 71.67696848244316 58.05413937850971 0 0 0
2341 47 5 0.75 2.5157049558898765 68.03862049889865 56.92352407263553 0 0 0
2342 47 5 0.75 0.8950408015673661 69.70924849098347 59.93990432236479 0 0 0
2343 47 5 0.75 106.59130510107528 73.1168440719857 58.724775555449185 -1 0 0
2344 47 5 0.75 105.41938401041031 74.09028158749139 62.216926806563706 -1 0 0
2345 47 5 0.75 106.87378985781086 74.67382728669396 65.68971790998316 -1 0 0
2346 47 5 0.75 104.37050971262298 71.88508785463942 66.37719219663849 -1 0 0
2347 47 5 0.75 104.00856424840393 68.17342437215868 67.15735222749765 -1 0 0
2348 47 5 0.75 105.79066516064493 67.1363115312949 70.36119574644567 -1 0 0
2349 47 5 0.75 106.24178963735488 69.41497470844232 73.38117601651791 -1 0 0
2350 47 5 0.75 106.22533456628103 65.8932008664724 74.83477095206646 -1 0 0
2351 48 5 0.75 45.836216268597234 72.13433609722053 42.00404501135916 0 0 0
2352 48 5 0.75 45.13054188002418 71.99837073628265 38.262436122400146 0 0 0
2353 48 5 0.75 46.37219244788765 69.4012042608133 40.758258665375195 0 0 0
2354 48 5 0.75 46.71852953631369 71.51593721065353 37.608011822342 0 0 0
2355 48 5 0.75 49.741133427593894 69.93376162416577 35.91193218684729 0 0 0
2356 48 5 0.75 52.75969240859434 69.13423131008534 33.72900915680523 0 0 0
2357 48 5 0.75 52.72246956477133 70.07303763837723 37.42134678192253 0 0 0
2358 48 5 0.75 55.2889717889124 72.76518108848249 36.59579849288407 0 0 0
2359 48 5 0.75 54.15269972652162 70.48329331964204 39.42740122113649 0 0 0
2360 48 5 0.75 53.95562776171955 72.94210594267346 42.33110628975321 0 0 0
2361 48 5 0.75 52.81164959436421 73.69241283660772 45.88701032635615 0 0 0
2362 48 5 0.75 55.950356158622576 74.82622695176688 44.0487811089441 0 0 0
2363 48 5 0.75 55.48873139624929 77.8205248740932 41.73854680673229 0 0 0
2364 48 5 0.75 56.95485540911514 81.16825424327642 42.815249388509734 0 0 0
2365 48 5 0.75 53.29318279435691 81.83050144373848 41.9969081957241 0 0 0
2366 48 5 0.75 51.70192551165382 85.24500915041092 42.56711638693049 0 0 0
2367 48 5 0.75 52.52390180453335 88.36918101377682 40.54721412639984 0 0 0
2368 48 5 0.75 53.45547664915619 91.97949232069303 41.330744965626344 0 0 0
2369 48 5 0.75 51.310096822096746 94.8886050363678 40.12637433947105 0 0 0
2370 48 5 0.75 49.69893192271243 91.43874423966699 39.98959659866985 0 0 0
2371 48 5 0.75 52.986439043180056 92.28538704752233 38.2599744177351 0 0 0
2372 48 5 0.75 49.27536642800572 91.63614862931853 38.8278912437152 0 0 0
2373 48 5 0.75 45.81220293305415 90.50375384132445 37.71421236209864 0 0 0
2374 48 5 0.75 46.73744712970985 92.87331507198806 34.877805700371354 0 0 0
2375 48 5 0.75 46.239134688942144 96.20789119097296 36.6521751145779 0 0 0
2376 48 5 0.75 46.13076187623 92.90707102862945 34.75245366411961 0 0 0
2377 48 5 0.75 47.23652947341914 92.37360228052636 38.359223564709865 0 0 0
2378 48 5 0.75 48.22824540328343 88.771139609362 37.61433282284181 0 0 0
2379 48 5 0.75 50.97055672851423 90.07308407804108 35.3119928835655 0 0 0
2380 48 5 0.75 48.86526919951259 89.56329782548728 32.17766960781086 0 0 0
2381 48 5 0.75 51.25240948325973 92.5006202256198 31.74201104495302 0 0 0
2382 48 5 0.75 54.1638166602105 93.96111882929132 33.718561595450794 0 0 0
2383 48 5 0.75 56.689950387932605 96.70962135314878 34.48045546339702 0 0 0
2384 48 5 0.75 54.89254339368046 93.99155007086519 36.45466837021298 0 0 0
2385 48 5 0.75 55.32601214211451 92.7029574876055 40.01384439824238 0 0 0
2386 48 5 0.75 55.515714176615155 89.34247583330959 41.79913882472976 0 0 0
2387 48 5 0.75 54.63419191473881 92.62751765134063 40.08230489111713 0 0 0
2388 48 5 0.75 52.12980685971325 95.36760903186129 39.22436857497181 0 0 0
2389 48 5 0.75 50.25283152749334 94.28890013113502 42.35956405687273 0 0 0
2390 48 5 0.75 48.92453559642667 97.59317095758561 43.71364094722249 0 0 0
2391 48 5 0.75 50.61620908195985 99.66650815690475 46.4257644098 0 0 0
2392 48 5 0.75 54.14308380434238 100.27508705622726 47.7322430418176 0 0 0
2393 48 5 0.75 54.378246253936055 97.19997879729794 45.49516731261981 0 0 0
2394 48 5 0.75 53.13596555832486 100.21587755032748 43.52610830263899 0 0 0
2395 48 5 0.75 54.22042594532342 103.82304387457606 44.0991674429011 0 0 0
2396 48 5 0.75 57.23461347921729 103.39098222018058 46.38916662135506 0 0 0
2397 48 5 0.75 54.31655838853427 100.97792492786914 45.96701855282753 0 0 0
2398 48 5 0.75 53.63501344559169 100.20980833182072 42.29801413941721 0 0 0
2399 48 5 0.75 55.30246749940103 101.08284141116765 38.985385240672166 0 0 0
2400 48 5 0.75 56.59065901808061 104.38988831735251 37.59970729414379 0 0 0
2401 49 5 0.75 73.5884685818422 22.46450589984432 5.505657462814302 0 0 0
2402 49 5 0.75 71.4797296191677 24.599934919488724 3.1584755590499247 0 0 0
2403 49 5 0.75 70.28532374328898 27.724858619235253 1.3351965144632596 0 0 0
2404 49 5 0.75 70.35450541386274 27.93054928453212 5.139011079694635 0 0 0
2405 49 5 0.75 71.46382077673918 31.078695368632825 3.301976605644758 0 0 0
2406 49 5 0.75 74.11397914234934 31.330465129988728 0.5762890548691146 0 0 0
2407 49 5 0.75 75.70386703403699 32.93752067427191 104.40060589367647 0 0 -1
2408 49 5 0.75 75.13367737938759 29.828122105532575 102.2739596376074 0 0 -1
2409 49 5 0.75 75.51647829750931 33.014289621448555 104.32771230470415 0 0 -1
2410 49 5 0.75 77.72306498798 35.96276301225836 103.3511981772466 0 0 -1
2411 49 5 0.75 79.68740491124225 36.19148924820087 100.09464279235452 0 0 -1
2412 49 5 0.75 81.12063616576503 36.46112432229921 96.57480684477471 0 0 -1
2413 49 5 0.75 82.63508677610677 34.31121204468281 99.33169214296719 0 0 -1
2414 49 5 0.75 78.85764946746215 33.87567571292734 99.09216034344847 0 0 -1
2415 49 5 0.75 79.25680915362496 33.64706846767032 95.31002995537901 0 0 -1
2416 49 5 0.75 76.43579814842595 31.336506076615787 96.41424838738892 0 0 -1
2417 49 5 0.75 79.71341583231786 29.47105883207285 95.87255761206954 0 0 -1
2418 49 5 0.75 81.88317205768134 29.457085282402808 99.00434027732685 0 0 -1
2419 49 5 0.75 80.2766808333497 26.985386539554625 96.59063124955482 0 0 -1
2420 49 5 0.75 78.70670412771905 29.416220465556595 94.11226090435316 0 0 -1
2421 49 5 0.75 81.1449498057552 28.532028299676085 91.32133592733685 0 0 -1
2422 49 5 0.75 83.19716105923222 27.54981609426467 94.37744262616842 0 0 -1
2423 49 5 0.75 83.16082134775486 26.650380681919376 98.07957651953167 0 0 -1
2424 49 5 0.75 85.14459858410304 29.89433441171918 98.31935157132972 0 0 -1
2425 49 5 0.75 85.97747632904617 33.02078016572569 100.33125405635057 0 0 -1
2426 49 5 0.75 87.82327041753176 30.341106222292222 98.34921174101132 0 0 -1
2427 49 5 0.75 85.93414995899296 29.343742097217564 101.5039841092091 0 0 -1
2428 49 5 0.75 83.53221728234853 31.333864056815635 99.31623777958283 0 0 -1
2429 49 5 0.75 86.87180948527019 31.023769941609107 97.50873520478547 0 0 -1
2430 49 5 0.75 86.575342620288 32.714011640262456 100.91039515223775 0 0 -1
2431 49 5 0.75 85.06891212466621 34.19581470740233 97.7400597075134 0 0 -1
2432 49 5 0.75 87.99150092790076 32.51579126723508 99.51547400499346 0 0 -1
2433 49 5 0.75 89.78619925024638 35.45187358717228 101.15088787992605 0 0 -1
2434 49 5 0.75 88.16365896374131 32.005524951354424 101.07250357623937 0 0 -1
2435 49 5 0.75 84.92546290750286 30.356629191070333 102.21763635154487 0 0 -1
2436 49 5 0.75 82.22106869884081 33.04016542527771 102.18624775725961 0 0 -1
2437 49 5 0.75 79.58701016501031 30.64342736720574 100.83218634013552 0 0 -1
2438 49 5 0.75 80.0613837811328 34.061250857870874 99.21677547630414 0 0 -1
2439 49 5 0.75 77.89224616659536 36.9422588646536 100.44589502868813 0 0 -1
2440 49 5 0.75 81.36182415967727 38.15071907320631 99.43705783951117 0 0 -1
2441 49 5 0.75 83.04891090220957 40.87564177937162 101.4973089330909 0 0 -1
2442 49 5 0.75 81.2077830560745 39.353406170925496 104.46532965514874 0 0 -1
2443 49 5 0.75 81.12596819171591 40.635413194232626 100.87842788340181 0 0 -1
2444 49 5 0.75 78.94613968452731 39.701143476627 97.8965513309582 0 0 -1
2445 49 5 0.75 76.09285395289105 41.23973570780108 95.89465361134023 0 0 -1
2446 49 5 0.75 72.93149809515667 41.07934965718315 98.0150793835699 0 0 -1
2447 49 5 0.75 69.51514096044104 39.58199881657282 98.79131671081024 0 0 -1
2448 49 5 0.75 67.36923974767345 38.25009464190125 101.64390137292546 0 0 -1
2449 49 5 0.75 66.48042726493392 34.79090854823 102.97060553734111 0 0 -1
2450 49 5 0.75 67.53094232170523 37.50126826818199 100.50758537827653 0 0 -1
2451 50 5 0.75 20.07282182219427 11.861551429735377 45.77205905382797 0 0 0
2452 50 5 0.75 20.850483020040524 9.909728909572959 48.95038123874742 0 0 0
2453 50 5 0.75 23.600623228728537 8.698247665876103 51.29241924628021 0 0 0
2454 50 5 0.75 25.911493547892203 5.918524637177227 52.49621252244085 0 0 0
2455 50 5 0.75 24.99750600899017 2.328202174171126 53.38520711768067 0 0 0
2456 50 5 0.75 26.78743036362308 1.8244344682279534 56.7106377519205 0 0 0
2457 50 5 0.75 24.70876437913419 4.1866942254435475 54.56238810060701 0 0 0
2458 50 5 0.75 25.61395050415437 1.648621604270911 51.86889121946443 0 0 0
2459 50 5 0.75 25.56088383615742 104.73033688268083 51.90300774715908 0 -1 0
2460 50 5 0.75 22.530718000918522 103.03698643663226 50.33241573208385 0 -1 0
2461 50 5 0.75 26.087567001540776 103.73160348889063 49.15664690383385 0 -1 0
2462 50 5 0.75 25.455723171686202 105.39679125217909 52.52473584085275 0 -1 0
2463 50 5 0.75 21.773229689418844 104.86243657273674 51.706318569763916 0 -1 0
2464 50 5 0.75 21.72984932785067 1.780075126297859 51.7901091464693 0 0 0
2465 50 5 0.75 22.02455138746495 5.30101343133035 50.364541137493916 0 0 0
2466 50 5 0.75 23.19193253380376 2.0264488306715114 51.92356260472415 0 0 0
2467 50 5 0.75 26.14006082430338 4.117873598160822 53.12796371095416 0 0 0
2468 50 5 0.75 27.417897875214482 2.4520618531333227 56.307319573616795 0 0 0
2469 50 5 0.75 26.82059590959909 2.1586337212480906 52.55588914066321 0 0 0
2470 50 5 0.75 23.764612233586192 2.4085514939562436 54.817438361623765 0 0 0
2471 50 5 0.75 27.286508269407896 0.9551674636475265 54.82225222773533 0 0 0
2472 50 5 0.75 24.018301456427594 106.60410825298658 53.30840486347818 0 -1 0
2473 50 5 0.75 24.758324192137994 106.1473780835588 57.01783391698037 0 -1 0
2474 50 5 0.75 20.9510480812498 106.25413734250532 56.92113295478632 0 -1 0
2475 50 5 0.75 23.01582862796418 2.343755109693014 58.090555406690505 0 0 0
2476 50 5 0.75 19.833703942861522 4.348727826021024 57.482059806673064 0 0 0
2477 50 5 0.75 19.111387892571706 0.74877334407382 56.46486402836785 0 0 0
2478 50 5 0.75 19.97187771949434 104.61449503338044 58.61478984544155 0 -1 0
2479 50 5 0.75 16.59614800241614 102.90139336063332 59.0458716660582 0 -1 0
2480 50 5 0.75 15.910157011955732 100.09168007483505 61.525998197631914 0 -1 0
2481 50 5 0.75 18.313662401867948 99.44678429076589 58.640972847942116 0 -1 0
2482 50 5 0.75 22.013482783731362 99.4976667105694 57.73276575630333 0 -1 0
2483 50 5 0.75 25.12942260985769 97.62203877025034 58.868124214876794 0 -1 0
2484 50 5 0.75 27.26301391435291 95.46150167602096 61.16942115569977 0 -1 0
2485 50 5 0.75 29.70849920219398 98.34357948669171 60.690537871180304 0 -1 0
2486 50 5 0.75 30.81841367653293 95.91411257910504 57.973576258533896 0 -1 0
2487 50 5 0.75 32.24568421252731 96.82039592519078 54.55924626369011 0 -1 0
2488 50 5 0.75 32.19575453057701 93.19839432406529 55.74022527633374 0 -1 0
2489 50 5 0.75 30.467445618176832 93.49910125303184 52.35812184116361 0 -1 0
2490 50 5 0.75 29.20476389460885 96.00352982438116 49.77944535971493 0 -1 0
2491 50 5 0.75 31.61605871176209 94.36499176794678 52.23239263643861 0 -1 0
2492 50 5 0.75 33.645557685356096 97.56323022611336 52.64288585305135 0 -1 0
2493 50 5 0.75 34.98945659694345 100.65172611913377 54.42368029212352 0 -1 0
2494 50 5 0.75 35.745479160587315 104.35466918562702 54.90611425607189 0 -1 0
2495 50 5 0.75 36.56241240043484 100.84451330598307 53.67018311630993 0 -1 0
2496 50 5 0.75 34.27270760007101 103.10735751529415 51.632319526277925 0 -1 0
2497 50 5 0.75 37.957806175910044 102.20620896342626 51.2800699360503 0 -1 0
2498 50 5 0.75 35.517174887487805 99.35141433451773 51.92004379546125 0 -1 0
2499 50 5 0.75 35.86746215885839 101.52450594361461 48.81020912365175 0 -1 0
2500 50 5 0.75 36.17970237487796 104.80405895775161 46.89627650337356 0 -1 0
2501 51 44 -0.75 22.068637064614435 29.603461825091255 100.68233597738677 0 0 0
2502 51 44 -0.75 17.88151658671537 31.623784663392698 98.84214095169088 0 0 0
2503 51 44 -0.75 18.150777569261958 31.742275192922865 103.83347930104065 0 0 0
2504 51 44 -0.75 15.420092746064942 27.889977385378103 102.18934974460439 0 0 0
2505 51 44 -0.75 15.35184461317588 23.988092732072356 105.31515177682816 0 0 0
2506 51 44 -0.75 19.094541692378726 20.686376518326767 105.01367438594129 0 0 0
2507 51 44 -0.75 18.552053572548633 16.144832871220746 102.99375162967704 0 0 0
2508 51 44 -0.75 16.787718161914412 18.964484948800333 99.26056495872375 0 0 0
2509 51 44 -0.75 20.045647212041523 15.223682413429986 99.88689929093351 0 0 0
2510 51 44 -0.75 15.310454830783994 14.195649148587016 98.65357017068338 0 0 0
2511 52 44 -0.75 21.237946672094612 7.472980270505281 95.32998146107916 0 0 0
2512 52 44 -0.75 18.27483416344763 11.058183793442623 97.16472393898101 0 0 0
2513 52 44 -0.75 16.25689656993873 10.746988376204856 92.60061556154368 0 0 0
2514 52 44 -0.75 14.54291430614429 15.401812699692194 91.972224507447 0 0 0
2515 52 44 -0.75 16.557538938807856 11.116329029134146 93.57719095533477 0 0 0
2516 52 44 -0.75 14.303450359405641 15.216982200655153 91.81545083741068 0 0 0
2517 52 44 -0.75 14.030275433169745 10.318266573201406 90.85214368960348 0 0 0
2518 52 44 -0.75 14.34965691411951 5.668567657741626 92.66275007012865 0 0 0
2519 52 44 -0.75 16.48879334550071 5.542159992065015 97.180284400933 0 0 0
2520 52 44 -0.75 21.079862031191844 3.596327593379348 96.81174051007133 0 0 0
2521 53 44 -0.75 91.83349662394794 29.531377002992173 60.32399914072762 0 0 0
2522 53 44 -0.75 91.15155472933293 31.76159374843987 55.90120720342223 0 0 0
2523 53 44 -0.75 89.53968758973139 27.74919434532465 58.41169228685797 0 0 0
2524 53 44 -0.75 86.16391049099657 31.310456822599697 57.451724293844485 0 0 0
2525 53 44 -0.75 87.617026518763 34.86423246029316 60.654712356074 0 0 0
2526 53 44 -0.75 85.2840736906567 37.46470766959494 64.23170268142263 0 0 0
2527 53 44 -0.75 81.28122573170928 40.40261963125309 63.64358575164035 0 0 0
2528 53 44 -0.75 76.84572593061321 42.48804309210659 64.63219614173269 0 0 0
2529 53 44 -0.75 77.48104843061047 41.667643805546 69.52334225809521 0 0 0
2530 53 44 -0.75 74.10433500986522 44.37296100805624 72.02914857701955 0 0 0
2531 54 44 -0.75 4.721532724097809 34.438114969417164 92.7155447775169 0 0 0
2532 54 44 -0.75 7.887224545300942 32.178493535384376 89.57349031140285 0 0 0
2533 54 44 -0.75 12.777421657836344 31.14885168329305 89.41283584687615 0 0 0
2534 54 44 -0.75 11.118456141933036 29.817477872907368 84.88787427863463 0 0 0
2535 54 44 -0.75 8.822326239194545 30.79612578435237 80.55543435000614 0 0 0
2536 54 44 -0.75 5.926856788026798 31.329888997865087 84.59664128472934 0 0 0
2537 54 44 -0.75 3.7761275312039593 26.973988758789293 85.7800671468203 0 0 0
2538 54 44 -0.75 7.145294843476185 26.129580274690067 82.18344568579641 0 0 0
2539 54 44 -0.75 5.567082373629667 30.643099741474934 80.72146503511222 0 0 0
2540 54 44 -0.75 8.448716312269458 27.299850595467795 83.0706927787339 0 0 0
2541 55 44 -0.75 60.345712343101596 90.01978063157988 88.09959925988927 0 0 0
2542 55 44 -0.75 59.619833665009324 92.62317123621327 83.89300235688114 0 0 0
2543 55 44 -0.75 54.893392597911415 90.99337637444255 83.96025968210438 0 0 0
2544 55 44 -0.75 52.9100462787142 94.94911625822463 81.63250124318023 0 0 0
2545 55 44 -0.75 50.95472498650666 98.01710887873786 85.06239044324431 0 0 0
2546 55 44 -0.75 55.79269379053374 96.75457919943885 85.05363486502642 0 0 0
2547 55 44 -0.75 58.43491734811288 94.23755020029617 88.47170737585012 0 0 0
2548 55 44 -0.75 55.02000631420178 94.12220051497482 92.12206038351506 0 0 0
2549 55 44 -0.75 57.575234024583864 93.11521455843375 96.30019281696241 0 0 0
2550 55 44 -0.75 61.83582943827473 92.70672281460041 93.71553399691355 0 0 0
2551 56 44 -0.75 53.988522122591434 23.381299252887533 20.37774040569074 0 0 0
2552 56 44 -0.75 53.07127700656008 25.499954585460415 15.942657432523596 0 0 0
2553 56 44 -0.75 57.22971771911476 28.225785496783068 16.469171138941256 0 0 0
2554 56 44 -0.75 54.617587172614336 31.261355327633538 13.475496171602643 0 0 0
2555 56 44 -0.75 58.19302164122535 33.147929129553724 16.417792494303107 0 0 0
2556 56 44 -0.75 56.95569727315897 37.649018960072155 18.20922174096419 0 0 0
2557 56 44 -0.75 55.51309272830418 40.0911908820504 14.091614616593844 0 0 0
2558 56 44 -0.75 56.32690160569591 43.498508227989106 10.523995856812519 0 0 0
2559 56 44 -0.75 55.21489157961117 48.214269202522715 9.289073943105876 0 0 0
2560 56 44 -0.75 57.14381542619602 43.832350269532085 7.847533357907335 0 0 0
2561 57 44 -0.75 94.99973084001127 41.96460056438662 0.26769350715275275 0 0 0
2562 57 44 -0.75 92.4944606991248 41.937501985479734 102.83189127040335 0 0 -1
2563 57 44 -0.75 89.12488901283635 45.626533005924045 102.63944184545522 0 0 -1
2564 57 44 -0.75 84.93564917962945 43.899298524608845 104.75295329951183 0 0 -1
2565 57 44 -0.75 85.51614102886256 39.57098593581212 102.31805302503697 0 0 -1
2566 57 44 -0.75 87.68375017604579 35.241253028095066 103.56500271643581 0 0 -1
2567 57 44 -0.75 83.87970891084278 32.70836094610994 105.59323538396923 0 0 -1
2568 57 44 -0.75 87.80011177811512 33.75274127947598 1.6243208574315093 0 0 0
2569 57 44 -0.75 85.17263621747992 29.893747977154778 3.414444560113757 0 0 0
2570 57 44 -0.75 82.93775789097623 25.8990696558264 1.4025141500763887 0 0 0
2571 58 44 -0.75 5.77754748903601 20.219800022723472 74.17507955778541 0 0 0
2572 58 44 -0.75 0.9985445459917619 20.105732356336066 72.70943313457845 0 0 0
2573 58 44 -0.75 1.2091052473007802 23.98090857124259 69.55686695851061 0 0 0
2574 58 44 -0.75 3.941293351941022 25.38697810191187 73.50124481005905 0 0 0
2575 58 44 -0.75 3.9086646011774784 25.52289234398853 78.49929069654551 0 0 0
2576 58 44 -0.75 0.8340772596786694 28.323862283567195 81.27444476020973 0 0 0
2577 58 44 -0.75 2.1970877991166837 30.663619726571273 77.07114398851995 0 0 0
2578 58 44 -0.75 0.23877483102865504 26.286977190781442 75.65339562123702 0 0 0
2579 58 44 -0.75 0.4136102213568842 23.631015772065076 71.42074851468787 0 0 0
2580 58 44 -0.75 0.0133439022020031 19.474214007759983 68.67106017489002 0 0 0
2581 59 44 -0.75 44.943087300536455 15.113628160230236 104.10548906966714 0 0 0
2582 59 44 -0.75 44.66041921859906 15.251561477031256 2.204393647544123 0 0 1
2583 59 44 -0.75 46.210348592792506 11.864518791727107 105.76007150918123 0 0 0
2584 59 44 -0.75 41.321257675502565 11.532837733408572 104.76670466957678 0 0 0
2585 59 44 -0.75 42.420539556679984 7.786950505731157 0.9995969196436647 0 0 1
2586 59 44 -0.75 38.40006208619915 7.813962192311043 104.91841180037908 0 0 0
2587 59 44 -0.75 41.83487150470158 6.094447398589017 101.71757548267426 0 0 0
2588 59 44 -0.75 40.701215985382376 6.553994815125067 106.56563090061991 0 0 0
2589 59 44 -0.75 45.62075298698169 7.221024391457028 105.97130167014777 0 0 0
2590 59 44 -0.75 45.56058819286438 3.1085821561040294 103.12802907357289 0 0 0
2591 60 44 -0.75 52.768515657040375 6.137799348585614 82.66760015413561 0 0 0
2592 60 44 -0.75 48.66989725534974 7.731249979893224 85.04714680904874 0 0 0
2593 60 44 -0.75 52.78045132750333 6.191429960265108 87.44136892218988 0 0 0
2594 60 44 -0.75 56.08147606671868 6.133635202044614 83.68638617429202 0 0 0
2595 60 44 -0.75 53.05046253402634 4.026203004538248 80.31419304554785 0 0 0
2596 60 44 -0.75 56.07405105596075 1.5928102510493205 77.16196967825707 0 0 0
2597 60 44 -0.75 52.142463217727375 3.240902315973079 79.77470954586555 0 0 0
2598 60 44 -0.75 48.95857983379163 106.40284579751268 80.75224989573084 0 -1 0
2599 60 44 -0.75 48.219242645407896 4.313862255395718 79.57234926431822 0 0 0
2600 60 44 -0.75 51.08800537440399 6.335792748699642 76.01117003757736 0 0 0
2601 61 44 -0.75 66.60049475684222 102.53826982300855 68.87004491399195 0 0 0
2602 61 44 -0.75 69.74505870320944 98.65111981954134 68.91226384046212 0 0 0
2603 61 44 -0.75 74.33923155681737 97.54423462121599 70.54578180758102 0 0 0
2604 61 44 -0.75 71.87642404556138 96.76753377850609 74.82729029915672 0 0 0
2605 61 44 -0.75 70.78128794814525 94.47518835235188 79.1337771939848 0 0 0
2606 61 44 -0.75 70.33203473891058 89.787179512732 77.45426992289657 0 0 0
2607 61 44 -0.75 74.52762942656803 89.84813879481716 80.1733265943965 0 0 0
2608 61 44 -0.75 71.96460748627344 86.01974968358638 78.23055657543436 0 0 0
2609 61 44 -0.75 76.78891696406762 87.33352625972516 78.23595754333743 0 0 0
2610 61 44 -0.75 78.79874004590573 90.09481372058022 81.88779307334633 0 0 0
2611 62 44 -0.75 21.573842349568185 37.56390180813537 44.25744173994019 0 0 0
2612 62 44 -0.75 22.077260576105495 36.2727613244504 39.45332617715657 0 0 0
2613 62 44 -0.75 26.7113823206442 36.62798708087876 37.609761608511505 0 0 0
2614 62 44 -0.75 28.47477530869244 37.91675379701177 33.11203712594368 0 0 0
2615 62 44 -0.75 32.266546040555156 40.032857532465286 35.59086340016883 0 0 0
2616 62 44 -0.75 34.19071012787069 37.542777162268365 31.70536570810348 0 0 0
2617 62 44 -0.75 33.728905728226025 35.628548081247644 36.30128386684427 0 0 0
2618 62 44 -0.75 35.06101923297634 40.417997121599946 36.83668231690762 0 0 0
2619 62 44 -0.75 37.93681898513245 38.10605721516024 33.462558778192644 0 0 0
2620 62 44 -0.75 40.520272602358915 41.661313572651565 31.078042131122007 0 0 0
2621 63 44 -0.75 37.990269662420594 51.56979223669764 74.72810501405583 0 0 0
2622 63 44 -0.75 33.05418349714138 52.06526216579229 75.35225477036603 0 0 0
2623 63 44 -0.75 28.22680164571089 52.546771691733525 74.1420758427246 0 0 0
2624 63 44 -0.75 29.094540168271163 48.48743849396114 71.35481126146792 0 0 0
2625 63 44 -0.75 31.12585492689957 49.85405812339895 75.71441114446334 0 0 0
2626 63 44 -0.75 29.63662476729629 51.399419108400785 71.19843362483792 0 0 0
2627 63 44 -0.75 34.608127255350155 51.41197305189289 71.73135520422554 0 0 0
2628 63 44 -0.75 34.12227848599891 46.91054307756571 73.85292989288222 0 0 0
2629 63 44 -0.75 36.18316481110494 43.248924586299154 71.1427089462792 0 0 0
2630 63 44 -0.75 35.61798807838114 46.197663503157465 75.14089779386919 0 0 0
2631 64 44 -0.75 106.46628099277899 84.33812345549924 102.98875253830485 0 0 0
2632 64 44 -0.75 1.4239528176010054 82.38006977383492 98.77594766605735 1 0 0
2633 64 44 -0.75 3.4344371214656633 79.05318701833482 95.63114179047935 1 0 0
2634 64 44 -0.75 3.859294876779046 79.84904102097431 100.54907959958518 1 0 0
2635 64 44 -0.75 5.438984092270701 75.65144557052437 98.3389270218609 1 0 0
2636 64 44 -0.75 7.981019823422827 73.30863230548505 101.95130578753617 1 0 0
2637 64 44 -0.75 7.878698567655391 75.51445315484091 97.46534047991673 1 0 0
2638 64 44 -0.75 3.5655136473864957 75.27758480270607 94.9473394419261 1 0 0
2639 64 44 -0.75 7.616534109609987 76.05666452663111 92.12204866071163 1 0 0
2640 64 44 -0.75 9.91950351831359 77.15521451717278 87.82210449585828 1 0 0
2641 65 44 -0.75 6.4478785358330795 88.971139888099 4.981495006847146 0 0 0
2642 65 44 -0.75 5.263524482821658 92.70601934154065 1.8753750887862122 0 0 0
2643 65 44 -0.75 5.1201918755244336 88.87491986333342 5.0850686180449785 0 0 0
2644 65 44 -0.75 3.7232442574291866 84.12959733648567 5.813389610801128 0 0 0
2645 65 44 -0.75 105.87208253005385 85.639105414268 5.332289153311538 -1 0 0
2646 65 44 -0.75 0.6076305872946812 82.50469591820463 8.871948863754035 0 0 0
2647 65 44 -0.75 0.9638428620728524 85.60939647895258 12.77501781566723 0 0 0
2648 65 44 -0.75 3.573507278143589 88.0252362297776 16.289753927216413 0 0 0
2649 65 44 -0.75 6.707066230590261 91.5737443370312 14.680748487730016 0 0 0
2650 65 44 -0.75 3.5041966640550144 91.70106006096269 18.518119625136734 0 0 0
2651 66 44 -0.75 18.777702818678627 50.16233804602378 53.628104943615696 0 0 0
2652 66 44 -0.75 15.9951070321868 52.44337471059118 57.09999670804286 0 0 0
2653 66 44 -0.75 11.442402503681649 50.735789998162204 58.26491555758027 0 0 0
2654 66 44 -0.75 8.49414531346874 47.56640778094424 55.762357685813775 0 0 0
2655 66 44 -0.75 7.0428367818487025 44.24597871645456 59.20742000364477 0 0 0
2656 66 44 -0.75 8.454457736601483 39.72456026989917 57.60613879434658 0 0 0
2657 66 44 -0.75 7.534050186870727 40.71406207142053 52.792228104773635 0 0 0
2658 66 44 -0.75 6.036710935040839 43.51585666490323 56.65330596216794 0 0 0
2659 66 44 -0.75 10.009314944831313 46.5097029332758 56.148031875410766 0 0 0
2660 66 44 -0.75 9.835911635510671 45.87398664386272 61.104421296319046 0 0 0
2661 67 44 -0.75 13.361669070422627 89.4812019868457 69.61968803954662 0 0 0
2662 67 44 -0.75 18.054748500706154 91.13062457507698 69.11529673660607 0 0 0
2663 67 44 -0.75 22.186159001722167 88.3295280300979 69.40736764888743 0 0 0
2664 67 44 -0.75 24.20374408090867 90.98711319281624 73.13115490800192 0 0 0
2665 67 44 -0.75 26.986809803091937 87.3707393855523 75.17477563410151 0 0 0
2666 67 44 -0.75 26.578712704379647 87.74433724983338 70.2054817814674 0 0 0
2667 67 44 -0.75 23.22484790827423 84.29558681832853 71.5684606480093 0 0 0
2668 67 44 -0.75 22.945995599335628 85.01089215840693 76.5091670408498 0 0 0
2669 67 44 -0.75 24.653038520723168 89.49602076618304 77.91260062896471 0 0 0
2670 67 44 -0.75 28.607542745398806 86.53046061458313 77.15937468393541 0 0 0
2671 68 44 -0.75 72.85089618282132 105.16533353645843 26.834926173919 0 0 0
2672 68 44 -0.75 74.82854385853602 1.5813549877046285 30.02102766251812 0 1 0
2673 68 44 -0.75 73.67890131317388 104.26860957983445 32.47158361057923 0 0 0
2674 68 44 -0.75 74.51958091465853 103.51824460781052 37.342949970894075 0 0 0
2675 68 44 -0.75 75.31494714177987 102.52622156802543 32.50732355301496 0 0 0
2676 68 44 -0.75 78.12207080319081 106.2986477109821 34.206987562601554 0 0 0
2677 68 44 -0.75 78.653035920624 1.5891062956930284 29.739496912941547 0 1 0
2678 68 44 -0.75 74.51610330008916 3.8610640211387306 31.389950361828326 0 1 0
2679 68 44 -0.75 78.91569586992352 6.236429635828742 31.35497299762484 0 1 0
2680 68 44 -0.75 79.68423271310553 3.1902329502289746 35.244707805206566 0 1 0
2681 69 44 -0.75 18.335144059771856 24.326861150789114 50.58171976721023 0 0 0
2682 69 44 -0.75 18.580175889534154 19.780080479970582 48.51610970384533 0 0 0
2683 69 44 -0.75 20.952949454585383 17.39335458417957 52.2138772881257 0 0 0
2684 69 44 -0.75 19.098361004398 13.422966310076276 54.621473315970626 0 0 0
2685 69 44 -0.75 23.997643459305444 13.764449882097487 55.55978051357477 0 0 0
2686 69 44 -0.75 26.310433742379733 11.737748660449835 59.50230296305924 0 0 0
2687 69 44 -0.75 24.54074909547161 13.472187001099735 63.84510619288457 0 0 0
2688 69 44 -0.75 27.316500737269916 11.779406600574081 67.64375033766179 0 0 0
2689 69 44 -0.75 24.95154331998835 7.73263131959258 65.90289243430436 0 0 0
2690 69 44 -0.75 23.021743194929666 7.980633688065634 61.29698684446047 0 0 0
2691 70 44 -0.75 4.53537427099541 29.346793241925564 40.49732672240025 0 0 0
2692 70 44 -0.75 4.980412072663954 25.592076659994795 43.76903036797394 0 0 0
2693 70 44 -0.75 0.9914649406361247 27.476782330846447 41.41612040111448 0 0 0
2694 70 44 -0.75 0.43061655174360913 31.1370743514518 38.05640145326045 0 0 0
2695 70 44 -0.75 103.01859242600936 33.6813767423276 37.962336050621836 -1 0 0
2696 70 44 -0.75 100.03290013191388 29.674759134102302 37.78162394134897 -1 0 0
2697 70 44 -0.75 102.95801137312478 31.979973308561043 41.11774621674839 -1 0 0
2698 70 44 -0.75 100.13302551285035 35.28786748711198 38.6525300005194 -1 0 0
2699 70 44 -0.75 103.89229761452091 34.205221506446776 41.766330081794834 -1 0 0
2700 70 44 -0.75 1.2760721844500669 36.0740277674325 39.968493599102146 0 0 0
2701 71 44 -0.75 76.281213598562 53.3086468887704 70.54007641944877 0 0 0
2702 71 44 -0.75 74.31394008751387 57.40040814396134 68.44548224318298 0 0 0
2703 71 44 -0.75 72.04706723862623 54.43624978251752 71.77340241879698 0 0 0
2704 71 44 -0.75 71.35074172056898 56.02340283613722 67.08340498198659 0 0 0
2705 71 44 -0.75 70.390902165793 51.73899048735663 64.69122629829596 0 0 0
2706 71 44 -0.75 67.24000871825591 51.57124292295274 68.56985121402376 0 0 0
2707 71 44 -0.75 70.02467057205271 47.51714753737178 69.46983397198086 0 0 0
2708 71 44 -0.75 67.50454425723548 47.79087171084562 65.16007313937985 0 0 0
2709 71 44 -0.75 67.59370443343444 42.83151003942491 64.53016657883032 0 0 0
2710 71 44 -0.75 64.88831375254257 41.07876613690757 60.70802711565897 0 0 0
2711 72 44 -0.75 13.960302011762428 67.15382146583106 38.422494824102436 0 0 0
2712 72 44 -0.75 12.065232402615468 65.46108052062473 34.116297050090004 0 0 0
2713 72 44 -0.75 11.024170670045736 69.48306466230969 31.334241329401845 0 0 0
2714 72 44 -0.75 15.610919921749947 70.73684612154503 29.78835538455709 0 0 0
2715 72 44 -0.75 19.71981828059351 68.00099574347443 30.5833880791701 0 0 0
2716 72 44 -0.75 22.811853264538556 64.2161211790298 29.527905161506332 0 0 0
2717 72 44 -0.75 24.985646354038586 64.744990830456 33.99947317461339 0 0 0
2718 72 44 -0.75 21.011703216193688 62.40671030677976 32.065508301671855 0 0 0
2719 72 44 -0.75 18.70551151158648 66.54152657653901 33.67323161024678 0 0 0
2720 72 44 -0.75 18.195612516888048 65.58391581358475 28.792352115536872 0 0 0
2721 73 44 -0.75 20.512771385401248 59.9161615167261 87.35366360552355 0 0 0
2722 73 44 -0.75 19.44028916151703 58.87545342793443 82.58221638760571 0 0 0
2723 73 44 -0.75 21.925562445918214 54.88774640404685 84.29148798494752 0 0 0
2724 73 44 -0.75 21.548148002866824 59.802181954184505 85.13165556449309 0 0 0
2725 73 44 -0.75 19.9910454798708 55.06601235177274 85.51129912109617 0 0 0
2726 73 44 -0.75 17.00801715541337 53.526421854318116 89.2168629264613 0 0 0
2727 73 44 -0.75 16.15737352929058 50.86503855172047 93.36336076656578 0 0 0
2728 73 44 -0.75 14.948131511086455 55.5776054111767 94.51637739114864 0 0 0
2729 73 44 -0.75 11.445162160674753 53.91686246158387 91.35866641871085 0 0 0
2730 73 44 -0.75 12.964505914747924 51.77001134794072 95.61103338932945 0 0 0
2731 74 44 -0.75 103.20409814313392 37.69739729166199 101.49256990614514 0 0 0
2732 74 44 -0.75 0.35128491091107605 35.057999157092524 102.80598792402466 1 0 0
2733 74 44 -0.75 104.48607786848666 31.535223700313704 100.57163963794737 0 0 0
2734 74 44 -0.75 100.80220992630137 29.884934819159376 97.621103484419 0 0 0
2735 74 44 -0.75 104.75039035381036 29.47546351045528 94.58067513315284 0 0 0
2736 74 44 -0.75 104.3618850552308 24.6378729054087 93.37785313013633 0 0 0
2737 74 44 -0.75 101.99334048197572 28.503724689552858 95.48621424425633 0 0 0
2738 74 44 -0.75 102.99304653940735 23.834505481516196 94.00331850077467 0 0 0
2739 74 44 -0.75 0.7016432477102938 23.23457501101257 95.86933530076256 1 0 0
2740 74 44 -0.75 3.012598751429337 19.048397860119117 97.33063798028115 1 0 0
2741 75 44 -0.75 45.28600194014105 55.27266135194118 63.054396935837275 0 0 0
2742 75 44 -0.75 41.92411282279362 58.666383870366666 64.53099743380301 0 0 0
2743 75 44 -0.75 46.65120268498533 60.29107042218616 64.65353331875616 0 0 0
2744 75 44 -0.75 49.925191192313136 56.54866534011713 65.17832228166353 0 0 0
2745 75 44 -0.75 54.92052242465327 56.35906889412082 65.07478935514852 0 0 0
2746 75 44 -0.75 55.24369471673954 53.40391131803394 69.09506339681833 0 0 0
2747 75 44 -0.75 54.8488687947835 52.20413294265935 64.25722872195242 0 0 0
2748 75 44 -0.75 57.405539714803865 48.99696060065923 67.1168579593592 0 0 0
2749 75 44 -0.75 52.84164007701301 47.59789815584621 65.62909306809232 0 0 0
2750 75 44 -0.75 48.72621003414207 48.99438634211243 63.156633501617236 0 0 0
2751 76 44 -0.75 89.26091095000415 88.98108055849008 32.38229099264229 0 0 0
2752 76 44 -0.75 90.03025390563633 85.48939390815475 28.887117784847117 0 0 0
2753 76 44 -0.75 87.73356722810479 88.9196796463969 31.70817610740298 0 0 0
2754 76 44 -0.75 87.16371668290869 84.29382472738426 33.51835196195035 0 0 0
2755 76 44 -0.75 88.16550411862175 84.29816223852401 28.61973959520357 0 0 0
2756 76 44 -0.75 89.7172650072918 88.6129180950587 26.62601944360417 0 0 0
2757 76 44 -0.75 88.97094483171075 93.49979534045583 27.37531043109863 0 0 0
2758 76 44 -0.75 87.93945801090238 95.41850493581771 22.874800634735006 0 0 0
2759 76 44 -0.75 85.00421389779133 96.47679320164833 26.78176466616044 0 0 0
2760 76 44 -0.75 86.070093078754 91.88388192079711 28.445816209178247 0 0 0
2761 77 44 -0.75 24.19155469237782 11.622547932548555 98.194217909659 0 0 0
2762 77 44 -0.75 21.605866830794493 15.109430376806552 95.7131155130647 0 0 0
2763 77 44 -0.75 22.036362591848956 20.070241045754564 96.16591889927741 0 0 0
2764 77 44 -0.75 19.531406411827195 20.293761619706167 100.48740395527277 0 0 0
2765 77 44 -0.75 16.22379176111439 18.94705675038303 103.98684266988563 0 0 0
2766 77 44 -0.75 17.761249104592416 15.236029740085444 101.00951107165422 0 0 0
2767 77 44 -0.75 17.024759528979178 19.490571499294305 103.53071267489047 0 0 0
2768 77 44 -0.75 14.259543863621397 18.222382629167 99.56268050343002 0 0 0
2769 77 44 -0.75 9.980476863613042 20.1465526600104 101.29101938855747 0 0 0
2770 77 44 -0.75 11.330008908272411 20.33301445739013 106.10184003149932 0 0 0
2771 78 44 -0.75 79.79537120070881 33.599661822973154 23.981613892036492 0 0 0
2772 78 44 -0.75 75.43298495611866 31.8263799574278 25.662404681616966 0 0 0
2773 78 44 -0.75 77.79420260764633 35.055414892380405 22.662740601929077 0 0 0
2774 78 44 -0.75 75.2967670032228 33.92254601267453 26.843580649473544 0 0 0
2775 78 44 -0.75 79.63402593392846 31.71140081391462 27.983327058994085 0 0 0
2776 78 44 -0.75 75.75960734956315 28.584585866074757 27.522991404183454 0 0 0
2777 78 44 -0.75 77.33587796628112 29.499825072276803 32.17892397868475 0 0 0
2778 78 44 -0.75 76.61175145635104 28.618252232283254 37.04703142669801 0 0 0
2779 78 44 -0.75 72.37109312297426 28.334380309819164 39.68070445712502 0 0 0
2780 78 44 -0.75 71.30741590138317 31.939606879030606 42.977814123623865 0 0 0
2781 79 44 -0.75 28.48885063989194 29.660062245105085 12.953929049171837 0 0 0
2782 79 44 -0.75 33.12431664951332 30.54848411561212 14.604129477498546 0 0 0
2783 79 44 -0.75 32.89891185850574 26.685668575417612 17.77080735543666 0 0 0
2784 79 44 -0.75 30.62034937063135 23.612760470321618 14.551274972234557 0 0 0
2785 79 44 -0.75 28.925298762333703 20.53063496241402 18.104767027778667 0 0 0
2786 79 44 -0.75 26.36733368393853 24.58789536672881 16.692162104493267 0 0 0
2787 79 44 -0.75 21.415327212689903 25.1381398254147 17.110328272896655 0 0 0
2788 79 44 -0.75 22.714991767969774 23.865030825691065 21.767587715806386 0 0 0
2789 79 44 -0.75 26.862843009122425 21.338253293761717 22.95532732759234 0 0 0
2790 79 44 -0.75 25.3146859654821 24.959130377534784 26.03631076026995 0 0 0
2791 80 44 -0.75 51.751021296199944 106.22870041882487 20.320441676074847 0 0 0
2792 80 44 -0.75 49.07171441413068 104.49243878721126 24.168390503474022 0 0 0
2793 80 44 -0.75 46.97713535295308 102.03226005224101 20.352599740280034 0 0 0
2794 80 44 -0.75 45.238050778314374 98.85385545252547 16.90683000874533 0 0 0
2795 80 44 -0.75 44.138647590280215 100.26422667247076 21.57610893081567 0 0 0
2796 80 44 -0.75 47.76657869128555 97.43641279217952 23.536104998360315 0 0 0
2797 80 44 -0.75 51.15549843323612 99.65795106452032 26.465267111856733 0 0 0
2798 80 44 -0.75 46.47169879341501 99.03951754125313 28.102203552684838 0 0 0
2799 80 44 -0.75 46.763146032288816 94.11129854140201 27.309918252771247 0 0 0
2800 80 44 -0.75 48.48829937849264 90.7373573838751 30.57187579351696 0 0 0
2801 81 44 -0.75 104.84885151716807 77.62456086319948 57.751581603618426 0 0 0
2802 81 44 -0.75 2.1156292642770467 77.18784251043999 55.00921822249535 1 0 0
2803 81 44 -0.75 5.6864318303572645 77.16688622611358 58.50906534318821 1 0 0
2804 81 44 -0.75 9.750673770034254 74.52755873228678 57.2778513747406 1 0 0
2805 81 44 -0.75 11.256545618616428 79.15257874328073 58.43609999811695 1 0 0
2806 81 44 -0.75 9.454123742205013 74.9789908996571 56.35464860762264 1 0 0
2807 81 44 -0.75 7.153961400281787 76.97975295337208 52.39154320841706 1 0 0
2808 81 44 -0.75 9.716630543483618 81.06833117483819 51.0814840534801 1 0 0
2809 81 44 -0.75 14.10625080981714 79.68218743093021 53.03336505359737 1 0 0
2810 81 44 -0.75 13.352950294825177 75.34994004093872 55.41331691992257 1 0 0
2811 82 44 -0.75 58.305200566033385 60.885323683442195 102.74745646784568 0 0 0
2812 82 44 -0.75 55.71745170548602 63.11098808811383 106.40121806276584 0 0 0
2813 82 44 -0.75 52.25784835211797 63.86667207342611 3.039909881502453 0 0 1
2814 82 44 -0.75 51.2161844086716 66.585698640026 105.86639731850128 0 0 0
2815 82 44 -0.75 48.56463249155524 62.773213299778114 104.01323031004482 0 0 0
2816 82 44 -0.75 48.44093113581912 67.72152888772587 104.7195381867263 0 0 0
2817 82 44 -0.75 46.17360300656026 65.40855866294213 1.6374648243186698 0 0 1
2818 82 44 -0.75 44.803064060532165 63.181953729363045 5.899372081308371 0 0 1
2819 82 44 -0.75 40.72809546603173 60.572778929086496 7.159069590806979 0 0 1
2820 82 44 -0.75 36.357317293101964 59.23970582366812 9.188654341107124 0 0 1
2821 83 44 -0.75 95.46843898962472 85.92861157009403 48.353045171751994 0 0 0
2822 83 44 -0.75 99.5317599208375 87.58247150426561 45.95425999418606 0 0 0
2823 83 44 -0.75 101.22036936726491 92.28868993765312 45.94395491389889 0 0 0
2824 83 44 -0.75 100.27420608486743 95.86080348205243 49.31215619484423 0 0 0
2825 83 44 -0.75 102.63692229590573 93.53408488702772 53.05434174418074 0 0 0
2826 83 44 -0.75 97.97863519422114 93.66333283814114 51.242255585795355 0 0 0
2827 83 44 -0.75 93.80485698565013 90.98137359547461 51.864083605695804 0 0 0
2828 83 44 -0.75 98.53601882717658 90.76513269942171 50.26116517228804 0 0 0
2829 83 44 -0.75 99.32395828001677 88.78233954265376 54.7830765730269 0 0 0
2830 83 44 -0.75 98.97959876772828 84.90362493699766 57.9194741138636 0 0 0
2831 84 44 -0.75 8.874349756529444 36.07201538654761 68.04440910564313 0 0 0
2832 84 44 -0.75 12.868850642334095 33.0767240956082 67.7757220093241 0 0 0
2833 84 44 -0.75 16.99435354565439 34.339359624269385 65.24867287714278 0 0 0
2834 84 44 -0.75 12.6061227177932 35.70454234131668 63.278975857171424 0 0 0
2835 84 44 -0.75 15.681561033018607 31.94648363632877 62.08789486113963 0 0 0
2836 84 44 -0.75 18.875995279295957 35.70451170774426 62.908147785952245 0 0 0
2837 84 44 -0.75 14.824986250586726 33.76090294947576 60.714586561801376 0 0 0
2838 84 44 -0.75 12.455459399105813 30.300470557468316 57.99231725836049 0 0 0
2839 84 44 -0.75 14.587695019888896 28.660491140756154 53.77757660557718 0 0 0
2840 84 44 -0.75 14.171383547603725 30.463293692583267 49.13251603361804 0 0 0
2841 85 44 -0.75 55.940301168913386 37.88324124201532 75.85066087229985 0 0 0
2842 85 44 -0.75 53.03184911266982 39.034975148426156 71.9500948050019 0 0 0
2843 85 44 -0.75 54.025057452234186 35.59183106030922 75.43696962103489 0 0 0
2844 85 44 -0.75 51.04795542257106 33.09516937773157 72.28997995665335 0 0 0
2845 85 44 -0.75 52.71165294832189 31.265549881936426 67.94433811183723 0 0 0
2846 85 44 -0.75 51.291725573323276 27.840397873472046 71.2987590706082 0 0 0
2847 85 44 -0.75 48.851782717522916 30.85029012324266 68.1385015644547 0 0 0
2848 85 44 -0.75 46.657144659700016 33.453654598473456 71.79992986557731 0 0 0
2849 85 44 -0.75 45.37217870245704 30.321681789561506 75.47955060866522 0 0 0
2850 85 44 -0.75 48.216561543079585 32.66061418012474 78.86169216814291 0 0 0
2851 86 44 -0.75 19.13735925413141 88.38736369980259 74.45205339117904 0 0 0
2852 86 44 -0.75 22.982151098547142 85.3172414679756 75.34195515809263 0 0 0
2853 86 44 -0.75 24.73983950267841 89.45190607595305 73.14762609126578 0 0 0
2854 86 44 -0.75 28.898310309644845 89.85772340946792 75.89397509301826 0 0 0
2855 86 44 -0.75 33.107756464720296 88.87867237261689 78.4083382598582 0 0 0
2856 86 44 -0.75 37.731540244559156 87.7833287180645 76.85243150309839 0 0 0
2857 86 44 -0.75 33.92890997406388 84.74889052063453 75.69822707931073 0 0 0
2858 86 44 -0.75 33.786327410853026 88.4162255193006 79.0938601896787 0 0 0
2859 86 44 -0.75 30.102685959537947 85.27152455715824 77.85223161524337 0 0 0
2860 86 44 -0.75 26.721668891215124 87.28021048533921 74.76452948815314 0 0 0
2861 87 44 -0.75 1.5510227052085113 35.37019835251026 67.60907424471478 0 0 0
2862 87 44 -0.75 6.213392628867746 33.64814098248758 68.1538908278952 0 0 0
2863 87 44 -0.75 8.952455516659185 37.75993884049026 67.38535138736646 0 0 0
2864 87 44 -0.75 10.298894069002845 39.81865380421718 63.0323299168371 0 0 0
2865 87 44 -0.75 7.6348305705733415 40.851673758834586 58.92920483347712 0 0 0
2866 87 44 -0.75 9.76008417790446 37.13717408196646 61.51489415260899 0 0 0
2867 87 44 -0.75 11.681075484763753 37.04069084277182 56.89964948048969 0 0 0
2868 87 44 -0.75 12.679570345746457 32.14816125569619 56.642429239877224 0 0 0
2869 87 44 -0.75 12.0472192430517 27.3689468238454 55.31606522599949 0 0 0
2870 87 44 -0.75 13.019541441426096 27.3894478841325 60.22057022131507 0 0 0
2871 88 44 -0.75 74.99898875248103 41.54057095569984 13.294815758107253 0 0 0
2872 88 44 -0.75 70.83101957275935 43.741682098404425 14.963091111384376 0 0 0
2873 88 44 -0.75 67.17337895989661 45.19501496414588 18.046837003719354 0 0 0
2874 88 44 -0.75 68.1889629228673 48.48743672396141 14.423503156328263 0 0 0
2875 88 44 -0.75 66.65303535487588 49.85137043818017 9.864927575173402 0 0 0
2876 88 44 -0.75 71.64640352544914 49.667328629627434 10.04493570224124 0 0 0
2877 88 44 -0.75 76.1076716699241 48.254449182511465 8.284010317390914 0 0 0
2878 88 44 -0.75 80.58101417284344 47.979406598631996 6.067355534022915 0 0 0
2879 88 44 -0.75 82.34370545126632 49.25627512676007 1.5659639470969395 0 0 0
2880 88 44 -0.75 86.91950815930707 49.46109006236348 3.570977767308837 0 0 0
2881 89 44 -0.75 87.4982026708838 29.219869159449914 24.028895216559416 0 0 0
2882 89 44 -0.75 90.76172363211592 31.09879392391003 20.73965933795522 0 0 0
2883 89 44 -0.75 88.42292880902488 28.00587433277442 23.896221895271662 0 0 0
2884 89 44 -0.75 89.88047178798294 32.50733751358137 22.279930555095184 0 0 0
2885 89 44 -0.75 91.9486737779414 33.77290708086507 17.907188372082647 0 0 0
2886 89 44 -0.75 94.74529915244908 32.24389174010446 21.759590038884603 0 0 0
2887 89 44 -0.75 99.24166006503259 34.252547622991194 22.624483146693667 0 0 0
2888 89 44 -0.75 101.19826125140004 29.94038205701644 24.229768146040232 0 0 0
2889 89 44 -0.75 98.37704725050803 28.275300482629856 28.007102511940236 0 0 0
2890 89 44 -0.75 100.21527412720356 26.710082102771292 23.628630932365105 0 0 0
2891 90 44 -0.75 61.58233321781678 4.482710140584132 22.71381697314087 0 0 0
2892 90 44 -0.75 64.4769571766439 4.308669604127856 18.640628783447923 0 0 0
2893 90 44 -0.75 64.40019910893666 4.705255743251445 13.656972732585574 0 0 0
2894 90 44 -0.75 63.902354243804965 0.5686997741182989 16.42121859800546 0 0 0
2895 90 44 -0.75 59.895027671522506 104.53018946018078 17.019693856722068 0 -1 0
2896 90 44 -0.75 56.32725449498901 105.75280436122154 20.302407271652047 0 -1 0
2897 90 44 -0.75 61.01234339136448 104.66092848904717 18.939414567041062 0 -1 0
2898 90 44 -0.75 63.61915255074923 104.80143641301049 23.203778942871452 0 -1 0
2899 90 44 -0.75 61.029373786472306 101.08285749850877 21.09067298037845 0 -1 0
2900 90 44 -0.75 58.00890909793422 99.32773506835649 17.51347598825307 0 -1 0
2901 91 44 -0.75 55.184621663640804 39.944378372755715 97.51770642817218 0 0 0
2902 91 44 -0.75 53.9408612094265 40.22660618120339 92.6831012326395 0 0 0
2903 91 44 -0.75 56.84641939773402 43.65483933434373 90.49108182988127 0 0 0
2904 91 44 -0.75 59.503704045795544 40.32228446731919 93.10506659598983 0 0 0
2905 91 44 -0.75 59.53322416276081 35.87427695730513 90.82156977016484 0 0 0
2906 91 44 -0.75 59.881078965489436 33.856680386158025 86.25995809091 0 0 0
2907 91 44 -0.75 56.81559011592808 33.88805369684024 82.31004748070731 0 0 0
2908 91 44 -0.75 53.3268968263123 35.2906736002751 85.60575325299315 0 0 0
2909 91 44 -0.75 51.39766235174993 34.77935811138509 90.19014097797685 0 0 0
2910 91 44 -0.75 52.56865923858757 37.02269416212174 94.50247325349574 0 0 0
2911 92 44 -0.75 88.54116693019738 39.960690417008394 36.55752314029273 0 0 0
2912 92 44 -0.75 84.91721750049112 40.10378350076282 33.11564648644335 0 0 0
2913 92 44 -0.75 89.10934483461241 41.00947969989957 30.54547473938396 0 0 0
2914 92 44 -0.75 84.75397545229713 40.903485576089984 28.092003160313123 0 0 0
2915 92 44 -0.75 89.2075535824507 39.65028096788933 29.98808334021122 0 0 0
2916 92 44 -0.75 90.52006308762437 37.45131865485484 25.693681921540303 0 0 0
2917 92 44 -0.75 89.95998120957181 38.30780091358526 20.79952760946992 0 0 0
2918 92 44 -0.75 86.2042914023106 41.173648855198834 19.16193497172893 0 0 0
2919 92 44 -0.75 86.39045838215368 46.1349262810028 18.569424921329677 0 0 0
2920 92 44 -0.75 81.58367152796933 44.78653464407569 18.846264463132428 0 0 0
2921 93 44 -0.75 33.51664028087733 91.2635465959105 48.41663969404131 0 0 0
2922 93 44 -0.75 31.123353228442863 93.71244472020483 52.0601373352478 0 0 0
2923 93 44 -0.75 26.614197892074003 94.68362463434205 53.989989072266134 0 0 0
2924 93 44 -0.75 31.178858780811044 95.52563011062881 55.84872459641622 0 0 0
2925 93 44 -0.75 32.74714174609598 92.1548130485337 52.50536088980493 0 0 0
2926 93 44 -0.75 31.753932908592642 87.30088792535132 51.832347439980786 0 0 0
2927 93 44 -0.75 32.508183248140654 88.24175679534977 56.684756346365276 0 0 0
2928 93 44 -0.75 30.650208684647268 92.17040460464509 59.157337368684004 0 0 0
2929 93 44 -0.75 31.398122376648935 91.97485799400002 64.09721455666971 0 0 0
2930 93 44 -0.75 27.28078156741756 90.74050236129392 61.543027634644496 0 0 0
2931 94 44 -0.75 58.06915175944217 88.62540432313067 42.186920753729446 0 0 0
2932 94 44 -0.75 58.67200151441459 93.57676921563544 42.53413520360284 0 0 0
2933 94 44 -0.75 63.39832826423352 93.09694773799355 40.97477417948445 0 0 0
2934 94 44 -0.75 62.49331504671622 96.21253134128298 37.17029131225623 0 0 0
2935 94 44 -0.75 59.65404213787669 95.99754309827975 41.28031678717731 0 0 0
2936 94 44 -0.75 62.54197561101373 91.94793396123255 40.76991881316253 0 0 0
2937 94 44 -0.75 65.4613364724911 87.89474242619937 40.548625928483695 0 0 0
2938 94 44 -0.75 70.13704728822503 86.33448998218394 41.387280016038574 0 0 0
2939 94 44 -0.75 72.05596076613116 84.73370074774239 37.0565474115932 0 0 0
2940 94 44 -0.75 74.94133174587283 81.50956402765155 34.55063904945652 0 0 0
2941 95 44 -0.75 32.73082371310839 25.64096487445897 87.31428456351072 0 0 0
2942 95 44 -0.75 30.73692178374939 26.998319783560525 82.93456508084562 0 0 0
2943 95 44 -0.75 30.140141765524437 24.601250896651113 78.58739193485081 0 0 0
2944 95 44 -0.75 26.859364249349532 23.721719761058015 74.91820621171229 0 0 0
2945 95 44 -0.75 31.229439183416158 26.124189302961348 74.55684050931461 0 0 0
2946 95 44 -0.75 32.538409250009536 27.9439603905212 70.08749709516039 0 0 0
2947 95 44 -0.75 31.760113620796066 23.049696010088777 69.42384651844277 0 0 0
2948 95 44 -0.75 28.442839968057598 23.975319331906352 65.79908211520846 0 0 0
2949 95 44 -0.75 23.648771704125412 25.2975847378134 66.31727481787777 0 0 0
2950 95 44 -0.75 28.40522786227097 25.616671785971974 67.82535580752543 0 0 0
2951 96 44 -0.75 71.50641585439617 5.01412030448976 84.79118449490628 0 0 0
2952 96 44 -0.75 71.83705800069913 6.389686661946841 79.99551009318544 0 0 0
2953 96 44 -0.75 73.03251061103454 6.2782353127600175 75.14180309201544 0 0 0
2954 96 44 -0.75 75.99553215518526 7.919178382256248 71.46378607579992 0 0 0
2955 96 44 -0.75 72.13082387341555 8.938294356481041 74.4680218401667 0 0 0
2956 96 44 -0.75 69.37484233136378 9.433592830029266 78.61039376479765 0 0 0
2957 96 44 -0.75 66.09043111509426 8.407145027399906 82.23793396042889 0 0 0
2958 96 44 -0.75 63.71350962307831 12.795728212471873 81.93696577523941 0 0 0
2959 96 44 -0.75 63.552907016612096 17.733593718850756 81.16775121238332 0 0 0
2960 96 44 -0.75 65.70681158722894 20.40232964787772 84.80623216489585 0 0 0
2961 97 44 -0.75 98.35325442121001 84.25083556935269 6.8339095876968 0 0 0
2962 97 44 -0.75 93.52640078912637 85.51727487372513 6.52147479004845 0 0 0
2963 97 44 -0.75 91.43193573426548 81.00244541896595 6.042380719530367 0 0 0
2964 97 44 -0.75 88.71237535045208 78.09452722070557 9.066947311790964 0 0 0
2965 97 44 -0.75 92.20748460419485 76.7418417745488 5.75719605404404 0 0 0
2966 97 44 -0.75 90.07957209372424 78.01570982367893 10.098768181878386 0 0 0
2967 97 44 -0.75 85.4210482915753 77.44414178851785 11.82256224324242 0 0 0
2968 97 44 -0.75 80.856264370871 77.01180576837044 9.828613065614633 0 0 0
2969 97 44 -0.75 79.4748355140241 74.48591949671714 5.740636444333134 0 0 0
2970 97 44 -0.75 76.73208287064793 71.52614755741888 2.78817001698876 0 0 0
2971 98 44 -0.75 83.40600445899 105.69443123014938 22.789028402318923 0 0 0
2972 98 44 -0.75 81.82380928105853 101.0562072139281 21.79729436827618 0 0 0
2973 98 44 -0.75 85.72780673051618 98.05011806509557 20.947452062963308 0 0 0
2974 98 44 -0.75 88.90008461063788 94.24856592500824 21.643766918102774 0 0 0
2975 98 44 -0.75 85.40594581349482 91.53583426409908 23.97444943663694 0 0 0
2976 98 44 -0.75 88.32722082832568 93.22503167293665 20.28490144241036 0 0 0
2977 98 44 -0.75 89.81972205683456 97.35774882482774 17.898881948490683 0 0 0
2978 98 44 -0.75 86.07926052416602 100.5807745298897 18.6869509982171 0 0 0
2979 98 44 -0.75 87.5120648066969 98.76114133165706 14.25569757375006 0 0 0
2980 98 44 -0.75 85.73458249209573 96.17254773461603 18.146679430638915 0 0 0
2981 99 44 -0.75 3.523000175262962 58.06816209173652 87.21163192597882 0 0 0
2982 99 44 -0.75 5.2033525149363085 59.88240082373079 91.55731413224818 0 0 0
2983 99 44 -0.75 4.242703718822378 61.38936307043479 96.22702704393062 0 0 0
2984 99 44 -0.75 8.636742411023153 63.772871321485106 96.1206673306104 0 0 0
2985 99 44 -0.75 7.55849613161761 63.66393458240862 101.00180631119962 0 0 0
2986 99 44 -0.75 9.283094235516316 67.71511745059813 98.63248599758289 0 0 0
2987 99 44 -0.75 7.533742653925755 70.78530256406081 102.16996142690515 0 0 0
2988 99 44 -0.75 6.928972908194805 75.74146137114033 102.43593780491015 0 0 0
2989 99 44 -0.75 5.614850358495598 71.24768209974995 100.68122136502757 0 0 0
2990 99 44 -0.75 2.5838776034119473 72.8055689705134 104.3399359830107 0 0 0
2991 100 44 -0.75 103.87940905973348 50.36313429348797 47.146919485419765 0 0 0
2992 100 44 -0.75 103.6931952862573 54.5720852720777 44.45432666614755 0 0 0
2993 100 44 -0.75 98.95276349547474 55.800116986461866 45.46439822074388 0 0 0
2994 100 44 -0.75 103.30411818539189 55.28356089621054 43.05631139337233 0 0 0
2995 100 44 -0.75 105.99367311220139 52.945660416461166 39.54910229745826 0 0 0
2996 100 44 -0.75 102.9702770719325 48.965945240324054 39.693820991863454 0 0 0
2997 100 44 -0.75 102.4490589216141 50.46963545849352 44.43378379420274 0 0 0
2998 100 44 -0.75 0.43943747921382226 50.32450318762991 45.505789586321825 1 0 0
2999 100 44 -0.75 4.533125499924566 52.143432956179936 47.72687330517889 1 0 0
3000 100 44 -0.75 9.160177123612868 50.35462920677099 47.10191377222985 1 0 0
3001 101 44 -0.75 21.84817364704624 71.7749809267488 59.48487284594682 0 0 0
3002 101 44 -0.75 23.82704290061743 68.95571750033699 55.86053425666362 0 0 0
3003 101 44 -0.75 25.182397769029716 64.16351697211464 56.30531204160408 0 0 0
3004 101 44 -0.75 24.927368029165216 66.01618366326075 60.94240013256185 0 0 0
3005 101 44 -0.75 28.85351367672959 63.03260095120397 61.76920999850879 0 0 0
3006 101 44 -0.75 25.044489021671158 60.353543928073826 63.589645288205745 0 0 0
3007 101 44 -0.75 28.747874765976036 57.00915745490824 63.27339673566129 0 0 0
3008 101 44 -0.75 23.97645165303414 57.52133810887535 64.67738835065964 0 0 0
3009 101 44 -0.75 19.78363718313656 58.30467986797015 67.28635031080313 0 0 0
3010 101 44 -0.75 16.121999841224387 58.241820081985665 70.6905331236997 0 0 0
3011 102 44 -0.75 71.82854447818676 45.361819650943836 57.63554543435405 0 0 0
3012 102 44 -0.75 75.60416385868635 43.2207320888593 55.15352159379917 0 0 0
3013 102 44 -0.75 73.73663487836522 47.82103349418092 55.74475969123259 0 0 0
3014 102 44 -0.75 69.39503520567429 50.25648843618318 55.2767089380373 0 0 0
3015 102 44 -0.75 70.32281497725921 54.28055163534088 52.45781907416845 0 0 0
3016 102 44 -0.75 72.06510607240165 51.42230615716852 48.74367657201608 0 0 0
3017 102 44 -0.75 69.80170082012668 52.02722770809625 44.32654327300899 0 0 0
3018 102 44 -0.75 67.16829381821064 49.26224451614175 41.098535294321714 0 0 0
3019 102 44 -0.75 69.4006143634853 51.146284346207885 37.04056302952381 0 0 0
3020 102 44 -0.75 70.06933724261357 49.796152181418144 41.80815706095419 0 0 0
3021 103 44 -0.75 43.475184033545176 76.2871004162763 3.146803133443099 0 0 0
3022 103 44 -0.75 47.034263564856914 79.20144193986424 1.1873219843403704 0 0 0
3023 103 44 -0.75 45.60059973402015 74.5037024514189 2.123191483176525 0 0 0
3024 103 44 -0.75 41.02857978883217 76.3257486095238 3.0045435232481807 0 0 0
3025 103 44 -0.75 45.07182360410223 74.129071946442 1.0483249546438995 0 0 0
3026 103 44 -0.75 43.87628779980109 78.97759588660038 0.7983054707131323 0 0 0
3027 103 44 -0.75 48.397715106047 79.63045750667419 105.65714340901964 0 0 -1
3028 103 44 -0.75 52.06851737747775 78.23775458662824 102.5610831285092 0 0 -1
3029 103 44 -0.75 52.38530573090393 78.39519615430787 97.57361309933609 0 0 -1
3030 103 44 -0.75 55.92238862943822 81.85153252997907 98.31035147020351 0 0 -1
3031 104 44 -0.75 6.1977923152424035 104.41659210439681 98.01617285616318 0 0 0
3032 104 44 -0.75 8.540935408351498 100.4610914502847 96.0505444526917 0 0 0
3033 104 44 -0.75 12.782463963788906 102.29600595283458 97.95908428244144 0 0 0
3034 104 44 -0.75 17.608845363134517 103.1712251942493 98.92863771960113 0 0 0
3035 104 44 -0.75 21.84570705952351 105.02434966911353 97.02734009788827 0 0 0
3036 104 44 -0.75 18.85137691833477 1.4627854278923564 94.80302901605053 0 1 0
3037 104 44 -0.75 16.937775215405573 2.7247452238447494 90.35942844939895 0 1 0
3038 104 44 -0.75 16.31460216133827 5.923326436318462 86.56723468168418 0 1 0
3039 104 44 -0.75 15.634125014257739 8.041340891813746 91.0450651405799 0 1 0
3040 104 44 -0.75 12.387135416847395 10.81947564141879 88.44910176114907 0 1 0
3041 105 44 -0.75 46.19840963178282 91.78586255913385 18.019648307322804 0 0 0
3042 105 44 -0.75 41.65395554700646 90.63680796005039 16.279645261439086 0 0 0
3043 105 44 -0.75 37.14880823707898 89.34020370046126 18.018169092126627 0 0 0
3044 105 44 -0.75 39.031302947591456 87.71705331538489 13.679782699431875 0 0 0
3045 105 44 -0.75 43.37280669849775 89.07932780763726 15.752354384229571 0 0 0
3046 105 44 -0.75 46.08490639425995 91.42733452692859 12.269341365820182 0 0 0
3047 105 44 -0.75 45.78016295559764 91.9263128735477 17.235038904555047 0 0 0
3048 105 44 -0.75 41.57790607479733 90.26097805579649 15.097821776476572 0 0 0
3049 105 44 -0.75 46.251147275689206 91.37416403636333 13.711591762750098 0 0 0
3050 105 44 -0.75 51.10656943467362 90.18058037831904 13.726879316276698 0 0 0
3051 106 44 -0.75 104.03923555699828 25.958034152048285 56.18301054795411 0 0 0
3052 106 44 -0.75 103.77012963926627 23.948550242147554 51.61250112110773 0 0 0
3053 106 44 -0.75 101.66793120524443 26.15688761318975 55.575329378760905 0 0 0
3054 106 44 -0.75 103.21611891688741 28.40961180119044 59.762016439231786 0 0 0
3055 106 44 -0.75 98.49814740034155 28.821560749797552 58.15856926741617 0 0 0
3056 106 44 -0.75 98.56412807652575 24.011131013620492 59.52070446763448 0 0 0
3057 106 44 -0.75 94.82860735485673 21.78899009953585 61.99213617737935 0 0 0
3058 106 44 -0.75 91.86685241277799 17.761998199379203 62.098643919562306 0 0 0
3059 106 44 -0.75 91.24733875901117 16.101378970508694 57.42333145839974 0 0 0
3060 106 44 -0.75 93.08758568646806 13.120233712431478 53.85594246976544 0 0 0
3061 107 44 -0.75 86.98494942742103 42.03661942451745 20.086572969841715 0 0 0
3062 107 44 -0.75 90.55740354853127 44.004566059913856 22.978762035721473 0 0 0
3063 107 44 -0.75 88.73427513826726 48.37877288357572 24.573289383720937 0 0 0
3064 107 44 -0.75 89.3200777614639 53.34354173393713 24.48437622869327 0 0 0
3065 107 44 -0.75 84.98454115918481 53.874618787387064 26.917703073487708 0 0 0
3066 107 44 -0.75 84.42138025785978 57.63139568242806 23.66662984144495 0 0 0
3067 107 44 -0.75 81.47075899295422 54.196846165101405 25.787408887955532 0 0 0
3068 107 44 -0.75 84.55758168049665 58.09177001010923 25.23868861562838 0 0 0
3069 107 44 -0.75 86.63909357304517 54.81856036044439 28.393590647470262 0 0 0
3070 107 44 -0.75 85.94875966923414 54.76615083054806 23.441753378089828 0 0 0
3071 108 44 -0.75 41.097894603759926 46.69668934623929 24.994503781066474 0 0 0
3072 108 44 -0.75 36.742615431868415 48.559680565708 26.594755964652087 0 0 0
3073 108 44 -0.75 31.936976352227404 49.625362962732986 27.47234018562361 0 0 0
3074 108 44 -0.75 33.28259428429707 48.21682604139323 22.86741498296122 0 0 0
3075 108 44 -0.75 32.08789303886821 52.49222204261923 20.566615563874127 0 0 0
3076 108 44 -0.75 30.176045076597244 48.14558414433474 19.000864513943984 0 0 0
3077 108 44 -0.75 29.12973124880195 43.598483472438105 17.20389404857692 0 0 0
3078 108 44 -0.75 31.586519734767272 40.49647352941494 14.147470542481326 0 0 0
3079 108 44 -0.75 35.94642166717823 42.42356045914052 12.638301531058131 0 0 0
3080 108 44 -0.75 39.98265552345069 40.88137361752933 10.12225781064284 0 0 0
3081 109 44 -0.75 81.65525458112964 35.036890635229355 85.75427090255491 0 0 0
3082 109 44 -0.75 80.14001209621114 33.16207158657941 81.37373511948941 0 0 0
3083 109 44 -0.75 85.03119824462817 33.63275537163555 82.29826464093185 0 0 0
3084 109 44 -0.75 87.4738887552046 33.39461276369192 77.94205629331788 0 0 0
3085 109 44 -0.75 83.2847218502755 36.114234021359636 77.70851645198749 0 0 0
3086 109 44 -0.75 86.17426507014409 38.109970630249784 74.14936270868739 0 0 0
3087 109 44 -0.75 88.84693677084141 34.055468088884886 75.34009152851047 0 0 0
3088 109 44 -0.75 84.3172070651007 33.53218257472524 77.3913645633844 0 0 0
3089 109 44 -0.75 86.24871229686858 37.44254454696422 74.9462967144852 0 0 0
3090 109 44 -0.75 91.10432819292186 36.393568477764525 75.51431385880485 0 0 0
3091 110 44 -0.75 39.28693650874825 71.53097473575527 105.27279739518522 0 0 0
3092 110 44 -0.75 44.271412204053426 71.61912546675673 105.65650495510016 0 0 0
3093 110 44 -0.75 48.738953262354386 72.9066287793726 0.6047173925942388 0 0 1
3094 110 44 -0.75 47.27158642385423 71.32239077201145 5.114376414882116 0 0 1
3095 110 44 -0.75 44.23633030006801 67.9092829296647 7.1485630138767675 0 0 1
3096 110 44 -0.75 45.52965273488763 72.68677058913252 7.8577377054901945 0 0 1
3097 110 44 -0.75 44.89997733366723 69.95875928665315 12.000377349804282 0 0 1
3098 110 44 -0.75 45.10493678219738 65.14538734091241 13.338077666173433 0 0 1
3099 110 44 -0.75 40.96970456617385 67.69182525913175 14.527829089041205 0 0 1
3100 110 44 -0.75 40.96104126785475 69.62698204895348 19.13815371384466 0 0 1
3101 111 44 -0.75 47.43906166135045 67.228329661898 63.167552875562514 0 0 0
3102 111 44 -0.75 49.95090602619172 68.34105069816879 67.34517059170835 0 0 0
3103 111 44 -0.75 48.537490353554574 66.95141988125391 62.75483483829944 0 0 0
3104 111 44 -0.75 51.769778561710794 70.7567067630129 62.486311679284896 0 0 0
3105 111 44 -0.75 47.81373023295663 69.39101690561297 65.22210641463262 0 0 0
3106 111 44 -0.75 44.61579377500612 69.11664258296908 69.05589320343357 0 0 0
3107 111 44 -0.75 45.83131196295229 72.16439789961046 65.28313518513234 0 0 0
3108 111 44 -0.75 43.02570142206282 75.53933833730727 67.6786156243864 0 0 0
3109 111 44 -0.75 39.477148719004916 72.76765049182946 65.5047894581875 0 0 0
3110 111 44 -0.75 43.85477701063599 73.25371884881272 63.13833470631695 0 0 0
3111 112 44 -0.75 70.29820835821492 84.60542098686723 55.77619544007408 0 0 0
3112 112 44 -0.75 73.89667427368437 83.31204961739321 52.554668852285374 0 0 0
3113 112 44 -0.75 69.86491275958338 85.71407534308489 50.829800304676766 0 0 0
3114 112 44 -0.75 64.9470586379054 85.47932539297699 51.70135253995546 0 0 0
3115 112 44 -0.75 65.50373749498353 80.5982008939607 50.77144271895929 0 0 0
3116 112 44 -0.75 68.79877905031711 80.28725234440768 47.02364174396666 0 0 0
3117 112 44 -0.75 70.28796134739156 85.01769621901653 47.66022389518961 0 0 0
3118 112 44 -0.75 75.18486927236434 85.18417851633444 48.65650519031588 0 0 0
3119 112 44 -0.75 77.1489744939671 84.92419539753618 53.247224029061364 0 0 0
3120 112 44 -0.75 81.36571593325333 85.64997321666353 50.660268638748434 0 0 0
3121 113 44 -0.75 32.78731480388293 19.076543566277127 94.15355131019288 0 0 0
3122 113 44 -0.75 32.47465535564823 20.26387290051476 89.30664579001937 0 0 0
3123 113 44 -0.75 33.18162350818214 17.581103662897632 85.14696488290666 0 0 0
3124 113 44 -0.75 30.20344236783388 19.047422459865906 88.88599500861191 0 0 0
3125 113 44 -0.75 31.305653933251673 19.56936555875925 93.7349851165186 0 0 0
3126 113 44 -0.75 30.25824775754901 24.08180819811064 91.85328329910347 0 0 0
3127 113 44 -0.75 30.05782419430034 28.09709349291003 88.88052121702181 0 0 0
3128 113 44 -0.75 25.645573642858267 27.059445380708336 86.76975560555677 0 0 0
3129 113 44 -0.75 24.614427051528182 26.255813523745413 81.94368965639458 0 0 0
3130 113 44 -0.75 24.751191557243008 31.22184358178513 81.37814484594837 0 0 0
3131 114 44 -0.75 42.18053509434537 37.00075567769339 73.2194567095367 0 0 0
3132 114 44 -0.75 42.27769259068077 40.091946419606536 77.14820972010078 0 0 0
3133 114 44 -0.75 46.28721714121294 39.2192871283851 74.29125703583654 0 0 0
3134 114 44 -0.75 50.175144831317645 36.74425070509257 72.35264594026 0 0 0
3135 114 44 -0.75 54.97308018518125 35.41244073652125 72.80662671932423 0 0 0
3136 114 44 -0.75 59.096011948889114 32.89365633087836 71.51931992228671 0 0 0
3137 114 44 -0.75 58.7031920188632 36.09766927363177 67.70094414648321 0 0 0
3138 114 44 -0.75 58.00853063010491 35.137229078317695 62.843475650837206 0 0 0
3139 114 44 -0.75 55.54450481669935 33.03054579671017 59.03684165978075 0 0 0
3140 114 44 -0.75 58.2849468302782 37.211985253843096 58.96239949065748 0 0 0
3141 115 44 -0.75 83.4690621413224 42.66704760810024 58.31266194566889 0 0 0
3142 115 44 -0.75 83.2873377090602 40.24375939575701 53.94291933647126 0 0 0
3143 115 44 -0.75 82.43175269225507 38.22399026763589 58.43608158015971 0 0 0
3144 115 44 -0.75 80.56591571405082 42.223772371772306 56.086529390870076 0 0 0
3145 115 44 -0.75 83.78999441691393 46.0067704332827 55.54408844076299 0 0 0
3146 115 44 -0.75 85.24877995282979 43.50052664021863 51.470921759919875 0 0 0
3147 115 44 -0.75 82.12606130357398 40.6740851088393 48.77650967056087 0 0 0
3148 115 44 -0.75 82.59792501049435 42.008512401639216 53.571991757100456 0 0 0
3149 115 44 -0.75 79.42760840156261 45.67092668476298 54.81127147447769 0 0 0
3150 115 44 -0.75 77.22645805191664 48.98947278201887 51.787666186309096 0 0 0
3151 116 44 -0.75 37.59175145204581 24.40909760185448 77.82288024242759 0 0 0
3152 116 44 -0.75 40.41741952777571 21.80042813523551 81.01825870823266 0 0 0
3153 116 44 -0.75 38.174802659770215 17.800376602729358 79.02570825200014 0 0 0
3154 116 44 -0.75 39.040707950440535 20.389145438425906 83.21479931605157 0 0 0
3155 116 44 -0.75 38.67282652381387 16.772566065399893 79.78186807663737 0 0 0
3156 116 44 -0.75 40.18873583959224 15.069182619805407 84.23164377700823 0 0 0
3157 116 44 -0.75 38.49407048834447 15.079844818413461 88.93568413236245 0 0 0
3158 116 44 -0.75 34.080437671292465 14.533323633554899 86.65069836638001 0 0 0
3159 116 44 -0.75 37.73763670843425 11.536734901078393 88.27715192277934 0 0 0
3160 116 44 -0.75 34.92017159999925 8.24267867577508 85.78494728686121 0 0 0
3161 117 44 -0.75 82.0177643332329 41.57108694283752 106.81602707170461 0 0 0
3162 117 44 -0.75 86.92343374097503 42.537720381217206 106.81078705745858 0 0 0
3163 117 44 -0.75 90.16870828834948 44.365111875785104 103.47479643430862 0 0 0
3164 117 44 -0.75 88.58229343712567 41.01154572474937 106.82694231276378 0 0 0
3165 117 44 -0.75 90.04325484647869 37.017363121718375 2.564836122457251 0 0 1
3166 117 44 -0.75 90.72325180759006 36.968537845738645 7.518140093071693 0 0 1
3167 117 44 -0.75 95.6119348618201 36.44886634783686 6.6067019275593 0 0 1
3168 117 44 -0.75 97.5671444807297 33.308564274369495 3.2428264492605052 0 0 1
3169 117 44 -0.75 96.11506378218144 35.84490747429536 106.07712095769425 0 0 0
3170 117 44 -0.75 98.9968115613055 31.92280033658085 104.93143106169168 0 0 0
3171 118 44 -0.75 29.193519448320206 40.038522330383465 55.01940443096975 0 0 0
3172 118 44 -0.75 25.894288149926368 41.59054912972551 58.44084939674409 0 0 0
3173 118 44 -0.75 28.592362187514322 45.595189811508575 57.14344834174919 0 0 0
3174 118 44 -0.75 25.35095031171274 44.03719889304837 53.66984598261135 0 0 0
3175 118 44 -0.75 26.931804951621572 46.57040053506446 49.659386152571194 0 0 0
3176 118 44 -0.75 28.435515039303368 47.89810847530414 54.23934768053499 0 0 0
3177 118 44 -0.75 33.4205990200911 47.590414406359535 54.47228987171094 0 0 0
3178 118 44 -0.75 32.65832585646522 52.1629193341133 56.34609303898422 0 0 0
3179 118 44 -0.75 28.547345110925757 51.356719031347126 53.6166465050467 0 0 0
3180 118 44 -0.75 29.979187833885376 48.41267491904584 57.395856830171745 0 0 0
3181 119 44 -0.75 88.99849165991897 72.27598067793896 73.95371301148468 0 0 0
3182 119 44 -0.75 88.23429731520919 76.76827955258175 76.01168721550104 0 0 0
3183 119 44 -0.75 84.53755486316206 76.17407819059069 72.69792500546839 0 0 0
3184 119 44 -0.75 88.05125351808033 76.49765500906818 69.15543720662285 0 0 0
3185 119 44 -0.75 87.69253419891471 71.62900840603875 68.07488146772394 0 0 0
3186 119 44 -0.75 92.52074952223379 72.92793212472007 68.04120707516702 0 0 0
3187 119 44 -0.75 94.01487180352449 69.4773056229384 64.74563802661825 0 0 0
3188 119 44 -0.75 91.17702198425032 72.72137519630553 67.27992708006089 0 0 0
3189 119 44 -0.75 93.26365454825584 68.29281027428665 68.29667546304243 0 0 0
3190 119 44 -0.75 94.50074644328056 72.45563428067621 70.7746786783533 0 0 0
3191 120 44 -0.75 52.9138932651038 16.720625839184528 46.60795075197286 0 0 0
3192 120 44 -0.75 51.02393621186222 21.226579795374843 47.66834750866125 0 0 0
3193 120 44 -0.75 50.27633853686478 16.308865719289933 47.161212435712486 0 0 0
3194 120 44 -0.75 53.905156703616036 17.075352369024095 43.80797863407632 0 0 0
3195 120 44 -0.75 52.06164136207747 16.068124486919366 39.270694955593925 0 0 0
3196 120 44 -0.75 52.918306334130264 20.56114052858349 41.290331550381865 0 0 0
3197 120 44 -0.75 55.63760183206139 20.736154013809372 37.098100369385214 0 0 0
3198 120 44 -0.75 51.04337947972152 22.02184315742104 38.59480488372991 0 0 0
3199 120 44 -0.75 54.4276913027972 18.622676750522082 40.00622304373772 0 0 0
3200 120 44 -0.75 55.42461713573338 17.748348278111187 35.18525959169246 0 0 0
3201 121 44 -0.75 106.26634966878059 26.269000461040992 95.68442907032725 0 0 0
3202 121 44 -0.75 104.91627799471048 22.040457632076517 97.98589208729855 0 0 0
3203 121 44 -0.75 2.47289296325917 22.24452036037617 95.71094960781184 1 0 0
3204 121 44 -0.75 1.3119738440964568 24.267491346085535 100.133602113915 1 0 0
3205 121 44 -0.75 3.7838886583734705 26.504699206178973 96.40740591112402 1 0 0
3206 121 44 -0.75 2.797013304208832 30.467743699907416 99.29190853308002 1 0 0
3207 121 44 -0.75 1.7438259809205903 25.932023763159286 97.47035943479843 1 0 0
3208 121 44 -0.75 5.132819231658829 24.740945215690765 93.99242087291857 1 0 0
3209 121 44 -0.75 9.395783055758244 26.725332443313814 92.29261301163949 1 0 0
3210 121 44 -0.75 13.288006835301786 29.841780988452648 92.66455724866678 1 0 0
3211 122 44 -0.75 46.99949874614809 22.615670882169628 36.275956006937164 0 0 0
3212 122 44 -0.75 50.13758796032932 20.789730260130543 32.83817519242513 0 0 0
3213 122 44 -0.75 48.224101624078415 22.024849845345898 37.28936038866203 0 0 0
3214 122 44 -0.75 44.50715404839404 20.1926322872288 40.08708795569594 0 0 0
3215 122 44 -0.75 44.9059086088082 21.848512010035407 35.38612452846671 0 0 0
3216 122 44 -0.75 44.75778858126209 26.841901346398693 35.59618021854233 0 0 0
3217 122 44 -0.75 47.01600133012082 31.248309463372493 36.29191198262912 0 0 0
3218 122 44 -0.75 42.201101329341064 29.941511126092436 35.96173613830799 0 0 0
3219 122 44 -0.75 42.44892206914299 32.53260142267866 40.23079176641367 0 0 0
3220 122 44 -0.75 39.32771482613774 29.008276943592247 38.54639207740756 0 0 0
3221 123 44 -0.75 60.89763162187126 17.09542281725718 98.02305553488355 0 0 0
3222 123 44 -0.75 57.65608605372076 19.583198392241897 95.1415012636415 0 0 0
3223 123 44 -0.75 54.466451015537274 22.336135567818488 97.83363150390117 0 0 0
3224 123 44 -0.75 57.27910192450429 23.365220575261286 93.82988589363278 0 0 0
3225 123 44 -0.75 52.397684235495134 24.13362507011752 94.59232663081386 0 0 0
3226 123 44 -0.75 50.74969418167089 28.6751975936727 95.8800563368411 0 0 0
3227 123 44 -0.75 47.24399407323183 30.15340509349881 99.12427725058113 0 0 0
3228 123 44 -0.75 48.092323717912855 35.0583079363403 99.59572705304248 0 0 0
3229 123 44 -0.75 43.91277874171674 35.95711978226718 102.18870623876214 0 0 0
3230 123 44 -0.75 40.7841627801568 38.44521987684515 99.18518828735358 0 0 0
3231 124 44 -0.75 59.41839115325574 55.62350484122766 65.66894450052948 0 0 0
3232 124 44 -0.75 61.56958627156294 53.19570551844512 69.47396092773027 0 0 0
3233 124 44 -0.75 60.395977761247174 48.45196029102911 68.4158851828603 0 0 0
3234 124 44 -0.75 62.14467143419548 49.35759537537184 63.820028839130856 0 0 0
3235 124 44 -0.75 59.820228282534714 53.23600924027226 61.685814715092334 0 0 0
3236 124 44 -0.75 58.39839199822839 55.26657520702543 57.34355914508108 0 0 0
3237 124 44 -0.75 58.694452180605644 59.82626998823671 55.31340351789252 0 0 0
3238 124 44 -0.75 55.334522941365954 62.33056224458929 52.585877935597324 0 0 0
3239 124 44 -0.75 54.642701018830756 58.65809399301744 49.264077314142675 0 0 0
3240 124 44 -0.75 56.534740651073626 54.03409231350421 49.0671141249902 0 0 0
3241 125 44 -0.75 7.8100165984480965 63.61194494078098 8.047842711260403 0 0 0
3242 125 44 -0.75 9.769920066505112 61.797134229421964 3.821113422811157 0 0 0
3243 125 44 -0.75 9.061463343636744 60.44069760838053 8.581173166650547 0 0 0
3244 125 44 -0.75 12.362048641183428 63.80616910306627 6.913918443437443 0 0 0
3245 125 44 -0.75 9.276621668475482 61.05395721154014 4.102251660152401 0 0 0
3246 125 44 -0.75 13.69581705144379 61.13200317009755 1.7645987784130197 0 0 0
3247 125 44 -0.75 17.1871637722084 64.6584280165469 1.1523685294454786 0 0 0
3248 125 44 -0.75 13.144064585152027 67.56674881918059 1.5939781676920495 0 0 0
3249 125 44 -0.75 16.715299999558088 66.57329495960161 4.949470239472223 0 0 0
3250 125 44 -0.75 13.602688428034607 62.660755298499126 5.010154711276478 0 0 0
3251 126 44 -0.75 38.53868819651346 41.02381740817137 20.31152669571645 0 0 0
3252 126 44 -0.75 34.4037393343681 43.76442800501377 19.686025725359148 0 0 0
3253 126 44 -0.75 32.45642896723928 47.938523014521586 21.631511059581584 0 0 0
3254 126 44 -0.75 28.502437144445764 46.10922399392607 19.17802094170251 0 0 0
3255 126 44 -0.75 24.848543751581776 42.70818468170396 18.89167382663994 0 0 0
3256 126 44 -0.75 24.15349653326494 39.33290600444559 15.268912005162434 0 0 0
3257 126 44 -0.75 21.645676233539163 35.593852972594945 13.093982174273208 0 0 0
3258 126 44 -0.75 20.489380349547353 33.75233169657132 8.59156291140842 0 0 0
3259 126 44 -0.75 24.40060723912102 35.84280580033688 10.900723416821906 0 0 0
3260 126 44 -0.75 27.727400971296362 33.8262307935273 14.041721459716834 0 0 0
3261 127 44 -0.75 103.50694310454313 59.11676716259668 83.41878828137794 0 0 0
3262 127 44 -0.75 103.88047273880285 63.671630064351874 81.39056256451504 0 0 0
3263 127 44 -0.75 103.96155314083356 64.56079246265256 76.47092678553153 0 0 0
3264 127 44 -0.75 101.22051382209098 61.46849166388143 73.65589939258726 0 0 0
3265 127 44 -0.75 96.25606865400599 61.705302187101324 73.10981794337856 0 0 0
3266 127 44 -0.75 94.2199837363399 57.195423360715026 73.82769758465922 0 0 0
3267 127 44 -0.75 97.73587393671716 58.025669331780506 77.2844601924211 0 0 0
3268 127 44 -0.75 98.91361158597942 58.53965850580582 82.11651453384721 0 0 0
3269 127 44 -0.75 97.01703376226465 54.215340452219515 83.76067569687865 0 0 0
3270 127 44 -0.75 96.87529668740183 58.78203002964031 85.79174854271298 0 0 0
3271 128 44 -0.75 32.067859606338224 30.782160848917158 87.4428305479069 0 0 0
3272 128 44 -0.75 30.825790154548667 26.17351181126034 88.93199726947842 0 0 0
3273 128 44 -0.75 30.439261182490963 22.59305174336033 92.4005562002065 0 0 0
3274 128 44 -0.75 34.53368129721659 25.004645026672456 90.84494000074916 0 0 0
3275 128 44 -0.75 35.952545312318584 24.28949616632888 95.58576134458801 0 0 0
3276 128 44 -0.75 36.806474237865764 24.905052016585486 90.69782759040018 0 0 0
3277 128 44 -0.75 37.80007784509509 28.368560769947333 94.16436173664579 0 0 0
3278 128 44 -0.75 40.39871624101825 27.45259472489539 98.33666142525227 0 0 0
3279 128 44 -0.75 43.155290059273234 23.482022056973754 99.61566630142156 0 0 0
3280 128 44 -0.75 44.86722111537685 18.806921198188807 99.15444615947608 0 0 0
3281 129 44 -0.75 57.55843253435743 14.506004516760978 57.17223330940724 0 0 0
3282 129 44 -0.75 60.80829378106627 16.87980629118081 60.139297011605315 0 0 0
3283 129 44 -0.75 59.77707810855217 20.206600421936106 56.55195328004942 0 0 0
3284 129 44 -0.75 59.71578764354085 21.97974342390417 51.877318815893915 0 0 0
3285 129 44 -0.75 61.867932454261116 21.0103301029322 56.28509722761245 0 0 0
3286 129 44 -0.75 61.211583051448336 24.135795724331462 52.43793332274972 0 0 0
3287 129 44 -0.75 56.85011604993136 23.333724536954318 54.74754095285877 0 0 0
3288 129 44 -0.75 61.43365064784362 22.279825883277606 53.050334949593484 0 0 0
3289 129 44 -0.75 57.66817401865113 20.36007322443733 55.721614696059746 0 0 0
3290 129 44 -0.75 61.423643955855276 23.631154045036563 55.278358770139135 0 0 0
3291 130 44 -0.75 85.9790727190101 22.220078064266673 8.782236121746434 0 0 0
3292 130 44 -0.75 83.52147208713941 22.55196629633967 13.123900472619297 0 0 0
3293 130 44 -0.75 81.20072552404328 26.56376222499793 14.999967853253178 0 0 0
3294 130 44 -0.75 84.87354821808356 29.915327801484302 14.473297515514043 0 0 0
3295 130 44 -0.75 87.20126021265224 26.80884254444092 17.624726749704966 0 0 0
3296 130 44 -0.75 84.49334524230551 28.57927248912357 21.436914353213353 0 0 0
3297 130 44 -0.75 81.40336326362862 31.147296869086404 24.41302963246055 0 0 0
3298 130 44 -0.75 84.16325751042324 34.876163479803076 22.547945841851572 0 0 0
3299 130 44 -0.75 84.19274407270747 30.0175874615152 23.728356625080274 0 0 0
3300 130 44 -0.75 80.58907698489776 32.38850657429391 26.25666160686108 0 0 0
3301 131 44 -0.75 45.55122042705951 15.398309764694911 73.60117188101691 0 0 0
3302 131 44 -0.75 47.55522090822615 16.464248552540873 78.05625398711209 0 0 0
3303 131 44 -0.75 43.39318968811893 17.468634774915472 75.47387050684489 0 0 0
3304 131 44 -0.75 45.3540235394615 13.339316401820657 73.44807180483853 0 0 0
3305 131 44 -0.75 42.71279359645318 17.22220190018995 75.16478511657981 0 0 0
3306 131 44 -0.75 39.89704323251133 17.35249111529817 71.03506665058387 0 0 0
3307 131 44 -0.75 43.7502939853322 16.242110107757235 68.04851133484338 0 0 0
3308 131 44 -0.75 39.737709956575955 19.030514003454073 66.98833534632404 0 0 0
3309 131 44 -0.75 39.67807540566267 22.31823352389871 63.22172625123272 0 0 0
3310 131 44 -0.75 41.7321743260813 26.377998980437482 61.14832757682648 0 0 0
3311 132 44 -0.75 74.11393159359105 87.19502788406605 40.248675246718875 0 0 0
3312 132 44 -0.75 74.65129152624701 90.67507130388854 36.69895101814475 0 0 0
3313 132 44 -0.75 74.28671613040576 91.54169600327504 41.609760158313044 0 0 0
3314 132 44 -0.75 76.23978205832735 87.04588273455767 42.596267398031316 0 0 0
3315 132 44 -0.75 72.88802689368032 88.89165445006304 45.81478632612577 0 0 0
3316 132 44 -0.75 76.59373794814633 86.24540792623695 47.87999452772354 0 0 0
3317 132 44 -0.75 81.46086555936587 85.10463922886119 47.978562246535965 0 0 0
3318 132 44 -0.75 77.01779470754884 83.9070637727686 46.022818287655205 0 0 0
3319 132 44 -0.75 75.16114981938266 82.33947872331693 50.392663464773264 0 0 0
3320 132 44 -0.75 76.18088572640721 78.29609577163917 47.63382439987541 0 0 0
3321 133 44 -0.75 71.10811944659265 32.747437065409365 88.73721568789993 0 0 0
3322 133 44 -0.75 71.29385106869056 37.693380856629254 89.44654197293829 0 0 0
3323 133 44 -0.75 72.24835467254567 41.5656899911521 92.46219195874873 0 0 0
3324 133 44 -0.75 67.80273495911106 40.955556597442374 94.6676856915446 0 0 0
3325 133 44 -0.75 66.00588765404127 37.188467183665345 97.42093415669854 0 0 0
3326 133 44 -0.75 65.73335740257552 33.059920456371266 94.61365269902718 0 0 0
3327 133 44 -0.75 61.20101029473929 34.568507948600065 96.09080992572291 0 0 0
3328 133 44 -0.75 56.74759261368388 34.37423699273601 93.8260075604445 0 0 0
3329 133 44 -0.75 54.276659839483195 31.062260557149795 96.64119908421381 0 0 0
3330 133 44 -0.75 51.38441189270327 28.969496609481762 93.14045046803352 0 0 0
3331 134 44 -0.75 34.90654658501099 12.110940529597634 60.214470675626295 0 0 0
3332 134 44 -0.75 29.97271389091889 11.78142482315356 60.95522322939478 0 0 0
3333 134 44 -0.75 27.502190444041027 7.6493041584540515 62.305072373110484 0 0 0
3334 134 44 -0.75 29.44896697211157 4.326990405171827 65.49447552644583 0 0 0
3335 134 44 -0.75 31.680105887534804 8.68865368060991 64.49551976577432 0 0 0
3336 134 44 -0.75 28.706708957443993 12.633688618681278 63.723762010048596 0 0 0
3337 134 44 -0.75 32.605119927056684 15.000113266177676 61.673779985804245 0 0 0
3338 134 44 -0.75 32.14572746029443 19.247173426070603 59.0754269382504 0 0 0
3339 134 44 -0.75 27.958399839474097 19.65129601044017 56.37302572216172 0 0 0
3340 134 44 -0.75 25.193177042607346 23.75995401281137 57.06039192968105 0 0 0
3341 135 44 -0.75 9.92222449039327 25.563753436497834 97.28882523692555 0 0 0
3342 135 44 -0.75 13.005654090022631 22.104097823906862 99.16585612276556 0 0 0
3343 135 44 -0.75 12.134469761722169 20.705648772607756 103.88659527220437 0 0 0
3344 135 44 -0.75 11.079438489856283 24.872949720980177 106.44012455950056 0 0 0
3345 135 44 -0.75 8.02445137984451 26.244840001482437 3.261743340716464 0 0 1
3346 135 44 -0.75 8.846788830505503 29.251453116499306 7.171223957607779 0 0 1
3347 135 44 -0.75 3.9851128101799027 28.17817569491122 6.710591946453249 0 0 1
3348 135 44 -0.75 4.859178339127127 33.08808985708802 6.35177113997473 0 0 1
3349 135 44 -0.75 0.8152238833141805 35.5926320663451 4.811089251536913 0 0 1
3350 135 44 -0.75 103.31764351175077 33.199840699722394 4.696118090140416 -1 0 1
3351 136 44 -0.75 97.70766306776343 31.212843674256295 75.56935463324719 0 0 0
3352 136 44 -0.75 95.93657288105062 35.73012751303811 74.36213208938454 0 0 0
3353 136 44 -0.75 96.4987587600702 31.070161900961363 76.08511425171042 0 0 0
3354 136 44 -0.75 98.29562658239483 26.799173134273374 77.96392264639024 0 0 0
3355 136 44 -0.75 98.99195081235315 26.43296096377104 73.02620847757196 0 0 0
3356 136 44 -0.75 101.83096511294127 30.37107163685136 71.82984643887838 0 0 0
3357 136 44 -0.75 104.36330132058106 33.992209868121414 69.49005344771207 0 0 0
3358 136 44 -0.75 105.63821516774857 29.89112383709956 72.05046123719757 0 0 0
3359 136 44 -0.75 1.8615999133555619 33.44377193001718 73.68695059542998 1 0 0
3360 136 44 -0.75 106.83497585493419 33.33273799204705 78.30318818212704 0 0 0
3361 137 44 -0.75 95.81311728724215 30.785815020264863 33.63115733601831 0 0 0
3362 137 44 -0.75 97.99308688653753 27.14768272221804 30.98319096008819 0 0 0
3363 137 44 -0.75 98.43079762595391 22.293965735937793 29.86522820324244 0 0 0
3364 137 44 -0.75 99.38934625812858 17.509144168316286 30.954570704836932 0 0 0
3365 137 44 -0.75 100.25675355419476 16.443811368551767 35.762134600249766 0 0 0
3366 137 44 -0.75 99.8236454171715 17.56214939139318 30.90809119208875 0 0 0
3367 137 44 -0.75 104.50584486896977 15.808356731718797 30.873168413673014 0 0 0
3368 137 44 -0.75 103.74628685358851 19.601372429900668 27.705187426574767 0 0 0
3369 137 44 -0.75 104.68332679717778 22.566668947726967 31.62041062653227 0 0 0
3370 137 44 -0.75 105.84163218795723 20.041393008329095 27.4633311166372 0 0 0
3371 138 44 -0.75 74.77281909098541 5.059696389834217 14.183713042167442 0 0 0
3372 138 44 -0.75 73.36556073058516 8.749239764985905 17.250779000042805 0 0 0
3373 138 44 -0.75 76.09558484650688 12.9381453630519 17.244597011918056 0 0 0
3374 138 44 -0.75 79.04411680625734 11.586119490180737 13.439575944773075 0 0 0
3375 138 44 -0.75 83.81563539091101 12.205688022020214 14.799261655023365 0 0 0
3376 138 44 -0.75 79.22521055910663 10.715734139858103 13.492342647363078 0 0 0
3377 138 44 -0.75 77.53796461041645 9.902989531818848 18.128358966438295 0 0 0
3378 138 44 -0.75 76.42628772054877 5.107156350047682 19.002520613478925 0 0 0
3379 138 44 -0.75 74.01006691217204 9.223171060414714 17.512453531361654 0 0 0
3380 138 44 -0.75 71.68785639301659 5.071950006208805 15.971446696905245 0 0 0
3381 139 44 -0.75 97.18853934589418 79.53871008941293 15.796106562241823 0 0 0
3382 139 44 -0.75 97.93630087048432 75.86233137943736 19.10141929830494 0 0 0
3383 139 44 -0.75 101.5682581172076 78.95652106683008 20.596369710996534 0 0 0
3384 139 44 -0.75 106.37149875158559 79.90801297903832 21.608072507900125 0 0 0
3385 139 44 -0.75 3.9070978228226494 79.4840417131042 19.322517667611745 1 0 0
3386 139 44 -0.75 7.200017104956402 76.01598112156735 17.863326681215263 1 0 0
3387 139 44 -0.75 9.775266249413832 78.50467688495709 21.35252218179376 1 0 0
3388 139 44 -0.75 5.861370375271434 75.633852412961 20.152611377875605 1 0 0
3389 139 44 -0.75 2.1544952069672547 77.66759519388711 22.821500058139524 1 0 0
3390 139 44 -0.75 6.6547018004782075 79.66785740826101 23.685844717097137 1 0 0
3391 140 44 -0.75 63.44311551372844 68.9138928412117 28.994085043556137 0 0 0
3392 140 44 -0.75 60.59687889415686 67.38164460647928 25.179487757790696 0 0 0
3393 140 44 -0.75 61.2370972247043 62.44625389294887 24.697783497866872 0 0 0
3394 140 44 -0.75 61.97819637710139 58.3858283310929 27.519789221274074 0 0 0
3395 140 44 -0.75 65.90203778562166 55.28804230570472 27.434993338759806 0 0 0
3396 140 44 -0.75 69.41506044149367 57.2841075327158 24.489760677517705 0 0 0
3397 140 44 -0.75 74.16104232428408 58.42982746680595 25.568177016810445 0 0 0
3398 140 44 -0.75 75.27236647484291 56.03591456902547 21.321514836906687 0 0 0
3399 140 44 -0.75 78.41558864871308 56.41970947825204 17.452037374335983 0 0 0
3400 140 44 -0.75 81.41601620166509 59.480263439180874 14.877072529579983 0 0 0
3401 141 44 -0.75 30.884380773410733 51.53637046001892 45.39830643785074 0 0 0
3402 141 44 -0.75 30.119874505423436 56.45927234460552 44.97337444218344 0 0 0
3403 141 44 -0.75 35.0887188445941 57.01630183065295 44.95593641576392 0 0 0
3404 141 44 -0.75 32.83544425063358 52.9079968363436 46.70080995787089 0 0 0
3405 141 44 -0.75 35.418113635984845 56.203331360163816 49.43404782203271 0 0 0
3406 141 44 -0.75 37.659663614202245 51.958690264894 48.03459233238672 0 0 0
3407 141 44 -0.75 34.57263115285059 52.90049181813677 51.85339324587654 0 0 0
3408 141 44 -0.75 30.36277292120036 54.545042357505054 49.7150417329418 0 0 0
3409 141 44 -0.75 26.139729238169295 55.880574998955055 47.39507306616352 0 0 0
3410 141 44 -0.75 24.12018727778175 51.748234922596936 49.35599523788747 0 0 0
3411 142 44 -0.75 35.97855684773668 76.43591563264664 3.993292103443357 0 0 0
3412 142 44 -0.75 31.662248133818284 78.69685003743314 2.8718400521255774 0 0 0
3413 142 44 -0.75 29.31676105207048 83.11258037296759 2.8678459070392757 0 0 0
3414 142 44 -0.75 33.446941484668635 84.20508611684157 0.27014677246159513 0 0 0
3415 142 44 -0.75 31.327564808525025 80.25831481382728 104.94070042996461 0 0 -1
3416 142 44 -0.75 33.64567291652748 78.02115625371557 101.11689390027038 0 0 -1
3417 142 44 -0.75 35.92451000668202 75.09784077409132 104.47265433914637 0 0 -1
3418 142 44 -0.75 38.634525649638675 72.00753269395997 101.6255837069342 0 0 -1
3419 142 44 -0.75 37.11311032133345 75.76984440860387 104.54625245923242 0 0 -1
3420 142 44 -0.75 39.1991388337419 71.54083975665944 102.88372285069869 0 0 -1
3421 143 44 -0.75 63.15221532717008 75.63035867373914 99.69497180832343 0 0 0
3422 143 44 -0.75 67.50563673169295 76.35791206879593 102.04409677987849 0 0 0
3423 143 44 -0.75 70.5610061277769 72.49036971030856 102.88483095830794 0 0 0
3424 143 44 -0.75 75.1590722753676 70.67531994890084 102.13424314466171 0 0 0
3425 143 44 -0.75 71.46762655539906 73.80653625700722 100.88176043884314 0 0 0
3426 143 44 -0.75 69.06105336495877 69.86121586081059 98.97313463727573 0 0 0
3427 143 44 -0.75 64.98181010769393 72.73374450838374 98.643963531419 0 0 0
3428 143 44 -0.75 68.06400871901512 73.62397114797297 94.80892138686109 0 0 0
3429 143 44 -0.75 69.37621680611585 76.0561917975834 90.64209853872414 0 0 0
3430 143 44 -0.75 64.59545376914824 77.10284068453561 89.61797408739712 0 0 0
3431 144 44 -0.75 3.5777290217018782 58.48462316886944 22.55308217021125 0 0 0
3432 144 44 -0.75 8.428013621348867 57.84207755063434 21.522609254063465 0 0 0
3433 144 44 -0.75 11.118222768421969 60.99534713628378 24.318975765310235 0 0 0
3434 144 44 -0.75 10.956645349636407 65.63421155124927 22.460258552470805 0 0 0
3435 144 44 -0.75 8.095971142616767 61.717786398602094 23.676053397420034 0 0 0
3436 144 44 -0.75 8.597510905515712 63.050279084427615 28.469060919681265 0 0 0
3437 144 44 -0.75 5.674902040594835 60.68769546597341 31.76702333130723 0 0 0
3438 144 44 -0.75 7.164588064412509 55.91632689774762 31.888996839042505 0 0 0
3439 144 44 -0.75 11.169328485206195 53.13236645817237 32.98973224455156 0 0 0
3440 144 44 -0.75 6.435958360145036 54.115052894393585 34.26626451098487 0 0 0
3441 145 44 -0.75 68.0500511435338 13.042013788226985 23.54454201994669 0 0 0
3442 145 44 -0.75 72.42599849489493 12.012423981826009 25.73338409023656 0 0 0
3443 145 44 -0.75 73.67140877905233 8.729539814970602 29.293106659640678 0 0 0
3444 145 44 -0.75 77.73578673108454 8.678739026098027 32.20485031986978 0 0 0
3445 145 44 -0.75 81.94773400158091 8.481269656132591 34.89195025074016 0 0 0
3446 145 44 -0.75 77.97404881707791 11.437018206305446 35.579973915022435 0 0 0
3447 145 44 -0.75 78.92618750663556 9.700715890988272 40.171126949465055 0 0 0
3448 145 44 -0.75 80.13551657801875 11.644171643584913 44.616405673550474 0 0 0
3449 145 44 -0.75 82.60798539121114 9.602169039887002 40.78011536463459 0 0 0
3450 145 44 -0.75 84.0279431310355 9.579480496241725 35.98603513511192 0 0 0
3451 146 44 -0.75 74.84310546330167 3.070736806683876 62.24403028773787 0 0 0
3452 146 44 -0.75 76.36203616623382 0.4995174822421764 58.23383319715646 0 0 0
3453 146 44 -0.75 71.67351811835829 0.9401227861775824 56.55345660814751 0 0 0
3454 146 44 -0.75 73.94320759415199 106.64772089004164 60.84852505543408 0 -1 0
3455 146 44 -0.75 75.48684200094814 2.2886469342862683 56.822911274956525 0 0 0
3456 146 44 -0.75 71.9873944189996 106.03064949227388 58.5070925630032 0 -1 0
3457 146 44 -0.75 68.63909637115916 2.7563919604967246 57.666450846656545 0 0 0
3458 146 44 -0.75 67.94262062731875 2.839782540636753 62.61700309356657 0 0 0
3459 146 44 -0.75 71.86852565666544 1.037394714025429 60.099331982592446 0 0 0
3460 146 44 -0.75 71.64518828026259 103.08873001885026 58.864059313336554 0 -1 0
3461 147 44 -0.75 16.153708035826483 76.3407161635158 8.64633434862619 0 0 0
3462 147 44 -0.75 14.058323779219704 73.69341869569267 12.334312240916459 0 0 0
3463 147 44 -0.75 13.000255443026973 72.64522523945217 17.107338730916375 0 0 0
3464 147 44 -0.75 9.12833241252789 74.0997757680012 19.916697164044578 0 0 0
3465 147 44 -0.75 13.60877763737729 75.19812133008344 21.8452322592343 0 0 0
3466 147 44 -0.75 10.014407758253158 76.97533978266377 18.85826059149904 0 0 0
3467 147 44 -0.75 9.057247309801225 73.4178603042302 22.238820254697327 0 0 0
3468 147 44 -0.75 8.893104502021462 78.28956920868495 21.125487649897472 0 0 0
3469 147 44 -0.75 8.921098633415202 74.77545750589576 17.568770727098084 0 0 0
3470 147 44 -0.75 8.884405016056085 71.67639464519796 21.492348554016857 0 0 0
3471 148 44 -0.75 92.33413798997479 27.279386448903153 14.923227791666479 0 0 0
3472 148 44 -0.75 92.20205771626698 26.61682246017815 19.877373910034613 0 0 0
3473 148 44 -0.75 97.1854295927652 26.371890826707734 19.551777172563106 0 0 0
3474 148 44 -0.75 94.64403920099103 22.193322657115242 18.51211235702571 0 0 0
3475 148 44 -0.75 92.76378215073463 17.824697893463707 20.054756547813614 0 0 0
3476 148 44 -0.75 94.50074173528043 18.164809658187604 15.378508544429826 0 0 0
3477 148 44 -0.75 97.50403673112527 14.31383349590561 14.306033945444286 0 0 0
3478 148 44 -0.75 93.96103237421138 17.77700899152331 14.979484473280094 0 0 0
3479 148 44 -0.75 95.23655655421692 22.268334424811194 13.190341125607073 0 0 0
3480 148 44 -0.75 96.92808553102122 17.874671392169788 11.50675718762487 0 0 0
3481 149 44 -0.75 0.8324890595375597 29.555015321486845 8.39258229830605 0 0 0
3482 149 44 -0.75 102.96474395516631 28.16995946894601 7.733697593888413 -1 0 0
3483 149 44 -0.75 98.79260921172495 27.101354894133014 10.273653488241353 -1 0 0
3484 149 44 -0.75 100.20138869069723 30.346099246346498 6.739962150786239 -1 0 0
3485 149 44 -0.75 96.16608570726066 32.3556852013879 4.577118161690321 -1 0 0
3486 149 44 -0.75 93.96615872277994 36.547934483373155 6.18502587690524 -1 0 0
3487 149 44 -0.75 91.46847375533468 33.00258542815937 8.673412880587096 -1 0 0
3488 149 44 -0.75 92.89074905274565 33.55229152654359 3.9115901010441867 -1 0 0
3489 149 44 -0.75 88.88458884893242 35.95609442355514 2.130463476207538 -1 0 0
3490 149 44 -0.75 91.1773177227744 40.19358894006238 3.4672635860303935 -1 0 0
3491 150 44 -0.75 95.52768571428071 71.42779041648451 40.294284513558495 0 0 0
3492 150 44 -0.75 90.63640566778268 72.30980807423303 39.748918253005 0 0 0
3493 150 44 -0.75 91.65261975605708 75.17125495358847 35.776585099376064 0 0 0
3494 150 44 -0.75 95.07600572218234 78.72122804210792 34.953104924918755 0 0 0
3495 150 44 -0.75 99.84204692735672 79.763807142731 36.04758199161495 0 0 0
3496 150 44 -0.75 104.11487259148896 79.95394781581471 33.45783154642295 0 0 0
3497 150 44 -0.75 102.22398876107755 84.56033968212114 33.004276352521764 0 0 0
3498 150 44 -0.75 102.68535236724398 83.91698323152114 28.067350578279612 0 0 0
3499 150 44 -0.75 98.50884248056028 83.05665216722066 30.678211667313825 0 0 0
3500 150 44 -0.75 103.1205816139706 84.89693256637787 31.265774615302842 0 0 0
3501 151 44 -0.75 68.84679681914767 84.50631883540234 72.62754671263166 0 0 0
3502 151 44 -0.75 64.573293994837 82.56472473560572 70.90493649489704 0 0 0
3503 151 44 -0.75 62.548876846063976 79.31700726255431 67.68716297536676 0 0 0
3504 151 44 -0.75 67.45238386352639 78.61621778678443 67.00561104018713 0 0 0
3505 151 44 -0.75 71.28771069646344 77.78101141449324 70.10281920242572 0 0 0
3506 151 44 -0.75 67.40475509379712 77.61407497506414 66.95722100607053 0 0 0
3507 151 44 -0.75 70.338502096909 76.49235493092327 63.0668646388074 0 0 0
3508 151 44 -0.75 75.14344439504387 75.61229212900707 64.13364436127955 0 0 0
3509 151 44 -0.75 77.72311486489073 79.53068573797134 65.86323731692781 0 0 0
3510 151 44 -0.75 80.03413378095361 77.4692449909176 61.93772415098554 0 0 0
3511 152 44 -0.75 80.11258214840377 98.9513101853078 98.06525682569159 0 0 0
3512 152 44 -0.75 79.71795330223117 99.88696424436984 93.16946071519749 0 0 0
3513 152 44 -0.75 77.22164986058246 97.94849745125207 89.29508133016141 0 0 0
3514 152 44 -0.75 73.32121181227036 97.20128253323145 86.25727737046178 0 0 0
3515 152 44 -0.75 75.71612817765916 92.82235169854849 85.95837881266057 0 0 0
3516 152 44 -0.75 76.98054590472003 88.3572796623049 87.81966318713154 0 0 0
3517 152 44 -0.75 75.12489313099849 88.51755111828592 92.45979959070604 0 0 0
3518 152 44 -0.75 70.55437477897954 90.00701839649095 91.08435449146926 0 0 0
3519 152 44 -0.75 67.47334371106786 87.95348779259089 94.44445264738805 0 0 0
3520 152 44 -0.75 70.37482723514279 89.92167723210403 90.87967724216114 0 0 0
3521 153 44 -0.75 56.38978590761232 92.70746206979156 65.70808938980882 0 0 0
3522 153 44 -0.75 59.63471739679049 95.7775451018582 67.95419931738505 0 0 0
3523 153 44 -0.75 63.275577001927935 97.92719883356106 70.62311860605871 0 0 0
3524 153 44 -0.75 66.3098101555053 95.48187914682539 67.4904135769513 0 0 0
3525 153 44 -0.75 70.70431397663623 95.18550573445705 69.8569509137594 0 0 0
3526 153 44 -0.75 71.87917890643241 97.04640594332331 74.34657704623152 0 0 0
3527 153 44 -0.75 72.14566939360898 96.4194790660594 79.29995422859997 0 0 0
3528 153 44 -0.75 70.67745581496267 100.68911158142683 81.4481132243905 0 0 0
3529 153 44 -0.75 70.70217519848245 105.64527071693078 80.78790448797514 0 0 0
3530 153 44 -0.75 74.30768659109467 103.84886382584443 77.8259440089341 0 0 0
3531 154 44 -0.75 70.00182832282086 35.18459140961491 106.52872960781508 0 0 0
3532 154 44 -0.75 71.38720427187978 39.22758389606954 103.93355230476998 0 0 0
3533 154 44 -0.75 75.47128671601126 36.419233807996555 103.27519041921049 0 0 0
3534 154 44 -0.75 78.29283110011681 35.835178202765945 99.18890037339618 0 0 0
3535 154 44 -0.75 79.6025869476199 31.73380373618313 96.64660473661552 0 0 0
3536 154 44 -0.75 77.45258910446782 30.036062917479658 100.82932937337436 0 0 0
3537 154 44 -0.75 81.73287887678568 30.243053738277467 98.25323266224402 0 0 0
3538 154 44 -0.75 81.15801024004547 31.628316950892152 103.02298861850309 0 0 0
3539 154 44 -0.75 81.6879792209511 30.880824272210017 1.0471174030408008 0 0 1
3540 154 44 -0.75 77.53098954355347 29.59744664839021 105.47409064152161 0 0 0
3541 155 44 -0.75 55.29089175402742 41.45631704776062 104.02336895013602 0 0 0
3542 155 44 -0.75 54.68520961374731 43.98241758120288 99.75113706973809 0 0 0
3543 155 44 -0.75 51.173695850141506 40.53224950051006 100.6261292428319 0 0 0
3544 155 44 -0.75 47.159739873132345 39.29555621610628 97.9134281655027 0 0 0
3545 155 44 -0.75 49.590997101826886 37.48215676296256 93.93843499428107 0 0 0
3546 155 44 -0.75 49.28116948524585 39.79342658021527 98.36133434650019 0 0 0
3547 155 44 -0.75 50.481805685429606 37.427712868415725 102.59947914683582 0 0 0
3548 155 44 -0.75 54.94623764737464 37.09490943387491 100.3728024457583 0 0 0
3549 155 44 -0.75 58.93561135786352 35.03031955050403 98.17681382749481 0 0 0
3550 155 44 -0.75 57.69379376906102 33.113970458096794 93.72872488591881 0 0 0
3551 156 44 -0.75 43.93759044823078 51.95543740088401 100.50571795986994 0 0 0
3552 156 44 -0.75 47.773430972986496 53.66338794665219 103.22035097408235 0 0 0
3553 156 44 -0.75 43.05873038844661 52.824212209560166 101.78251145577187 0 0 0
3554 156 44 -0.75 39.540923251673775 49.42959452154079 100.73293835176428 0 0 0
3555 156 44 -0.75 37.59385018675974 45.3114126467867 98.67151056347454 0 0 0
3556 156 44 -0.75 40.53534707855452 45.11368293129018 102.70988882648697 0 0 0
3557 156 44 -0.75 42.27178850899257 44.76444906611588 0.49446394566594165 0 0 1
3558 156 44 -0.75 45.04830506146379 41.59778240134057 3.1894923440421366 0 0 1
3559 156 44 -0.75 45.67877575495003 45.02102004096108 106.49126320986684 0 0 0
3560 156 44 -0.75 49.992642131933835 44.05870317426673 104.15363553857182 0 0 0
3561 157 44 -0.75 57.39529156260604 68.53968916788997 95.83587027786254 0 0 0
3562 157 44 -0.75 60.74654320525889 67.75381959609268 99.46237292417892 0 0 0
3563 157 44 -0.75 57.46024905693575 65.40138065219445 102.4062312403905 0 0 0
3564 157 44 -0.75 55.628324108899974 62.62187606701868 106.13696913600191 0 0 0
3565 157 44 -0.75 57.49289411065595 60.16785554250264 3.1829277093146544 0 0 1
3566 157 44 -0.75 60.72540828492007 59.025838576769615 106.43452597088904 0 0 0
3567 157 44 -0.75 65.10507745641752 56.618174021618906 106.2873888304187 0 0 0
3568 157 44 -0.75 60.75120481262487 56.947345590816774 103.85111317284918 0 0 0
3569 157 44 -0.75 65.68674013215345 56.1883298129601 103.5973688947845 0 0 0
3570 157 44 -0.75 64.37997036737218 58.80838630165675 99.54426430966804 0 0 0
3571 158 44 -0.75 78.55976733678153 15.611276953236795 20.723302861782198 0 0 0
3572 158 44 -0.75 82.9939452729183 14.763582453023844 22.872600436569524 0 0 0
3573 158 44 -0.75 82.705468489405 10.434751193998157 20.387041932680326 0 0 0
3574 158 44 -0.75 82.07482360826668 6.482475580384734 23.384007816358462 0 0 0
3575 158 44 -0.75 81.23615137442826 5.909848662342056 28.279794504616177 0 0 0
3576 158 44 -0.75 80.2713307316022 6.116642786216133 33.181463334464624 0 0 0
3577 158 44 -0.75 78.37643927171956 10.673981250056435 32.381430534346094 0 0 0
3578 158 44 -0.75 74.14891787485988 8.065579383630281 31.811954861188685 0 0 0
3579 158 44 -0.75 75.552603465634 12.850990600357454 32.17182462801392 0 0 0
3580 158 44 -0.75 74.304809729091 9.324278193690605 35.48924989344285 0 0 0
3581 159 44 -0.75 79.47239083907873 101.47763624061503 103.65885130697215 0 0 0
3582 159 44 -0.75 76.03036492845379 99.46616032381245 106.67653622536734 0 0 0
3583 159 44 -0.75 80.84054084376217 99.17659363025626 1.1188944901502111 0 0 1
3584 159 44 -0.75 77.68538029019246 97.47971798571325 104.52216899851857 0 0 0
3585 159 44 -0.75 76.38146425806272 102.10854245567677 105.89103239835876 0 0 0
3586 159 44 -0.75 73.16345121011469 100.93490009503023 102.24864916309477 0 0 0
3587 159 44 -0.75 74.48503566166949 104.12661244405764 105.86339491051248 0 0 0
3588 159 44 -0.75 72.68101875194479 1.4372502093060433 103.84098501555988 0 1 0
3589 159 44 -0.75 73.63398567422159 4.587858133371768 100.0772735821659 0 1 0
3590 159 44 -0.75 71.80797409674601 8.985047421364868 101.60384100107801 0 1 0
3591 160 44 -0.75 63.403511120830004 25.196368374266044 90.5236511208394 0 0 0
3592 160 44 -0.75 66.14525477268639 27.217106024718554 94.18417855490529 0 0 0
3593 160 44 -0.75 69.3250418322222 28.024529186650522 97.95737641528636 0 0 0
3594 160 44 -0.75 71.67423721110359 24.331409308184107 95.54032311940757 0 0 0
3595 160 44 -0.75 66.72961346471763 23.95708940132535 94.89955747269626 0 0 0
3596 160 44 -0.75 63.23361446915979 21.56130790337833 92.24659270904912 0 0 0
3597 160 44 -0.75 62.2713790180082 25.91777221209276 94.50387462840355 0 0 0
3598 160 44 -0.75 65.20288466687187 24.3721854104338 90.75988797388433 0 0 0
3599 160 44 -0.75 64.34446653724311 29.29742653207222 90.68834631855975 0 0 0
3600 160 44 -0.75 68.87439369960055 31.069148477748293 89.53043386463844 0 0 0
3601 161 44 -0.75 41.43602778049399 5.257662722170867 8.367397091474006 0 0 0
3602 161 44 -0.75 39.32266370160774 2.81657358430963 4.5497045827602465 0 0 0
3603 161 44 -0.75 43.87639976659552 4.121030300819428 6.150292138997657 0 0 0
3604 161 44 -0.75 41.264518638317774 6.8813174765429945 9.399736965315313 0 0 0
3605 161 44 -0.75 38.806959909057014 3.9277420467500423 6.200237430582169 0 0 0
3606 161 44 -0.75 42.326022442853805 0.47930996395405856 7.051421930893975 0 0 0
3607 161 44 -0.75 44.6138198268927 105.99555524406871 2.8234789221896888 0 -1 0
3608 161 44 -0.75 46.32773672784627 103.48331208314261 105.74590338538198 0 -1 -1
3609 161 44 -0.75 46.888790148083665 103.615935369454 3.8213622557601648 0 -1 0
3610 161 44 -0.75 51.57388481968441 104.75107414687172 2.4942044376613044 0 -1 0
3611 162 44 -0.75 2.7592952148607823 44.65889974568938 72.83161958075338 0 0 0
3612 162 44 -0.75 105.74716146633743 47.776778379999776 72.62456005117558 -1 0 0
3613 162 44 -0.75 106.66613555984199 43.389020178925094 70.41027357820752 -1 0 0
3614 162 44 -0.75 0.5211081730197874 38.67462876649045 68.92106217953796 0 0 0
3615 162 44 -0.75 0.19201507762504522 34.02447875096962 70.72876861801605 0 0 0
3616 162 44 -0.75 102.52320339290236 33.183226632220276 72.59923721450771 -1 0 0
3617 162 44 -0.75 106.51522350732293 35.56441853261753 74.44143713295959 -1 0 0
3618 162 44 -0.75 0.21044400607068936 39.28319852457107 71.15102763565083 0 0 0
3619 162 44 -0.75 105.03168871936991 41.000124546163846 75.36617643602744 -1 0 0
3620 162 44 -0.75 2.626467577890634 41.310009865347126 77.55250399288249 0 0 0
3621 163 44 -0.75 79.94857038358954 30.96458095879925 16.013669474637645 0 0 0
3622 163 44 -0.75 79.79968580489515 34.49532080047109 12.476479975521421 0 0 0
3623 163 44 -0.75 78.99751868825062 30.053387791491506 14.627237763072536 0 0 0
3624 163 44 -0.75 78.82400804055676 31.924402097477515 19.26072451949394 0 0 0
3625 163 44 -0.75 77.80567644571383 27.812797898222833 16.604089115149584 0 0 0
3626 163 44 -0.75 80.73489619589257 26.095072953053908 12.934062866209777 0 0 0
3627 163 44 -0.75 79.14924845138569 27.447587876364533 8.38912891591278 0 0 0
3628 163 44 -0.75 78.52186675825551 31.912924862676945 6.228768341889193 0 0 0
3629 163 44 -0.75 75.72552581870858 29.725763253731216 2.7078591629742244 0 0 0
3630 163 44 -0.75 72.1451645480898 31.438657962818763 106.55816326291168 0 0 -1
3631 164 44 -0.75 83.65292132056123 25.2924001431078 45.22468403795226 0 0 0
3632 164 44 -0.75 81.72793910484236 27.506896498359325 49.27319603148072 0 0 0
3633 164 44 -0.75 79.39613068975375 30.23765126536555 52.752513194056554 0 0 0
3634 164 44 -0.75 82.34019601433967 31.585855385301656 56.56234586958944 0 0 0
3635 164 44 -0.75 85.07771658923718 31.11811375729598 60.720133607250354 0 0 0
3636 164 44 -0.75 85.99336468071766 26.652491148836084 62.77434958698082 0 0 0
3637 164 44 -0.75 89.92578890693281 27.850655961874107 65.62047691826339 0 0 0
3638 164 44 -0.75 90.93978459034568 30.834997674875126 69.50190929485612 0 0 0
3639 164 44 -0.75 89.49805604498654 32.98692937585082 65.2251571678522 0 0 0
3640 164 44 -0.75 87.11162032832088 32.21775428393466 69.55104369528196 0 0 0
3641 165 44 -0.75 28.9132236722482 99.95246711170215 95.44890995613257 0 0 0
3642 165 44 -0.75 24.85081051408048 97.71355994836462 93.58233714847098 0 0 0
3643 165 44 -0.75 23.680978065061478 94.79000534829045 89.69848332248739 0 0 0
3644 165 44 -0.75 27.176714449292565 96.20225705846156 86.41437427449861 0 0 0
3645 165 44 -0.75 27.327265007473976 96.60673433096883 91.39571271566645 0 0 0
3646 165 44 -0.75 30.667621781848446 97.65880235372593 94.96434963967295 0 0 0
3647 165 44 -0.75 30.664119024966965 94.24297762673547 91.31303081421073 0 0 0
3648 165 44 -0.75 34.12525296012398 90.72583436986407 90.50664679059138 0 0 0
3649 165 44 -0.75 34.794583462950804 86.0829999865411 92.23756722984315 0 0 0
3650 165 44 -0.75 34.758755932786414 90.89968531871078 90.89657550766746 0 0 0
3651 166 44 -0.75 65.99447012004043 3.171207645035898 25.301662642042626 0 0 0
3652 166 44 -0.75 66.53119428166227 0.21961649503801706 29.301667249238164 0 0 0
3653 166 44 -0.75 71.09818710492836 1.885265436304529 30.471363858061896 0 0 0
3654 166 44 -0.75 75.83872336020015 1.3038114857987688 28.99176008816439 0 0 0
3655 166 44 -0.75 75.25983762445661 0.022065884095752608 33.78988675567408 0 0 0
3656 166 44 -0.75 72.99473221026419 4.3693009010872395 32.80457199904086 0 0 0
3657 166 44 -0.75 74.65760778391409 106.60441982966435 32.05903883173677 0 -1 0
3658 166 44 -0.75 77.45829508156375 105.09884472298187 28.20036104538017 0 -1 0
3659 166 44 -0.75 74.58637657420037 101.22329746166561 26.884223699823945 0 -1 0
3660 166 44 -0.75 72.26802673675716 104.05251788585133 23.475299262028734 0 -1 0
3661 167 44 -0.75 25.395821680217143 68.3070589741449 43.98542472976522 0 0 0
3662 167 44 -0.75 25.068675786566057 65.16292625899312 40.11148551576359 0 0 0
3663 167 44 -0.75 27.942607782472926 65.36348810308685 44.19808432523786 0 0 0
3664 167 44 -0.75 23.073829221188905 65.69812426292266 45.2857487779582 0 0 0
3665 167 44 -0.75 19.722882516447 62.42459523822688 47.03365149448839 0 0 0
3666 167 44 -0.75 18.596291965579965 67.27167020172041 46.54717638826889 0 0 0
3667 167 44 -0.75 18.91880149912563 68.05760380252104 51.47447747262579 0 0 0
3668 167 44 -0.75 19.379277935505094 63.77846969248996 48.92948774378448 0 0 0
3669 167 44 -0.75 18.04441312863305 62.78860156886933 53.64523763592403 0 0 0
3670 167 44 -0.75 20.49228421228294 66.97996222689243 54.84541386973594 0 0 0
3671 168 44 -0.75 73.89168805763236 4.362021082969864 68.11156656848156 0 0 0
3672 168 44 -0.75 71.34087398155168 8.629012585602595 67.57665436472405 0 0 0
3673 168 44 -0.75 73.84686944703049 12.435651552841879 65.52008282449135 0 0 0
3674 168 44 -0.75 74.83221138776038 15.78893644575698 69.09563616443553 0 0 0
3675 168 44 -0.75 70.63399044932474 15.341588593315787 71.77422177086979 0 0 0
3676 168 44 -0.75 67.06794598568496 12.245982493920394 70.13088682000613 0 0 0
3677 168 44 -0.75 70.67092992562159 11.16496020366958 73.42480508501203 0 0 0
3678 168 44 -0.75 71.01576023223276 14.114523352830917 69.40222266960374 0 0 0
3679 168 44 -0.75 66.96314729291531 12.065048935093422 67.31033764046944 0 0 0
3680 168 44 -0.75 63.743941712348104 8.426894758580604 66.1268894506583 0 0 0
3681 169 44 -0.75 61.65954160633023 55.656765467911285 73.71866544397751 0 0 0
3682 169 44 -0.75 58.925336521352634 51.88733869517711 71.89780181419151 0 0 0
3683 169 44 -0.75 60.59064553672314 55.86672167159404 74.42589536671855 0 0 0
3684 169 44 -0.75 56.785807387239245 56.22827166693823 71.2021571240725 0 0 0
3685 169 44 -0.75 60.22652090367111 57.53661723694893 74.58590096296994 0 0 0
3686 169 44 -0.75 58.517126809413426 52.83794509015822 74.56464331751796 0 0 0
3687 169 44 -0.75 62.29539706753118 50.21775745545155 76.52915104607315 0 0 0
3688 169 44 -0.75 66.48515673496134 48.24114022188534 74.64795508574775 0 0 0
3689 169 44 -0.75 71.09088908180621 46.466709881096186 73.84881397498339 0 0 0
3690 169 44 -0.75 70.79973574448587 42.138959813665416 76.33594265842946 0 0 0
3691 170 44 -0.75 33.53689906328217 36.37859816262144 60.97262289706614 0 0 0
3692 170 44 -0.75 34.723325818904854 35.18042021683212 65.67971979045666 0 0 0
3693 170 44 -0.75 33.477963723569914 39.937735097829695 66.5836160093568 0 0 0
3694 170 44 -0.75 31.566200872832827 44.4886540900569 67.38004499472042 0 0 0
3695 170 44 -0.75 32.50933438603976 40.130309468370086 65.11833516919471 0 0 0
3696 170 44 -0.75 31.592503905912235 35.47907505099557 63.529171783843836 0 0 0
3697 170 44 -0.75 32.41595287123775 39.126241803644405 66.84882635621688 0 0 0
3698 170 44 -0.75 35.51732101827758 42.44893412315602 64.76526417418697 0 0 0
3699 170 44 -0.75 37.72544159964162 38.296476798452666 63.06782443603012 0 0 0
3700 170 44 -0.75 37.049085029270685 33.379241420607016 62.46504916399321 0 0 0
3701 171 44 -0.75 84.30373979220099 100.794536770275 80.99698192902287 0 0 0
3702 171 44 -0.75 86.08553469544165 96.73733810856388 83.31308769996578 0 0 0
3703 171 44 -0.75 84.77944112963861 97.16471637056357 78.50564894127753 0 0 0
3704 171 44 -0.75 81.38472701402277 97.45928566069674 74.84653087724229 0 0 0
3705 171 44 -0.75 81.60498882754248 93.09822367383815 72.410833219428 0 0 0
3706 171 44 -0.75 76.87534760007854 94.22385778486868 71.24316815291371 0 0 0
3707 171 44 -0.75 76.32870444403231 98.66178468997022 69.00576205545984 0 0 0
3708 171 44 -0.75 72.44859238405635 100.6488255531257 71.45451663895314 0 0 0
3709 171 44 -0.75 69.79232924543714 101.9613743721726 67.42692657341377 0 0 0
3710 171 44 -0.75 68.46068629370089 101.30235892908641 62.65278521659733 0 0 0
3711 172 44 -0.75 67.62834112948399 56.47356943427811 27.39035190277235 0 0 0
3712 172 44 -0.75 63.472133991746354 56.29578954664585 24.616485190081875 0 0 0
3713 172 44 -0.75 65.15977336041935 59.03245616246395 20.787316978162778 0 0 0
3714 172 44 -0.75 65.57440820166397 54.2613223069208 19.3505290046204 0 0 0
3715 172 44 -0.75 61.361369211531574 51.636400942772966 19.95060424962262 0 0 0
3716 172 44 -0.75 65.8724700347722 49.48283822227852 20.06077217351264 0 0 0
3717 172 44 -0.75 65.925305657543 45.00643547637676 17.83388491694808 0 0 0
3718 172 44 -0.75 62.72891984182274 41.465552823796784 16.335463161326352 0 0 0
3719 172 44 -0.75 60.272813555090444 44.801787115422215 13.535984163431088 0 0 0
3720 172 44 -0.75 57.66346248860478 48.32971412961894 15.932860879979335 0 0 0
3721 173 44 -0.75 42.57285925852054 52.99008830784402 75.74627424926067 0 0 0
3722 173 44 -0.75 45.90112730229163 49.927600269437 73.61465541761507 0 0 0
3723 173 44 -0.75 43.01979023207364 53.99173518890963 74.03974840051508 0 0 0
3724 173 44 -0.75 44.89066553345559 50.15975642986683 76.65045029788364 0 0 0
3725 173 44 -0.75 47.79227578742159 49.62202432883488 72.61417700168587 0 0 0
3726 173 44 -0.75 44.20554472949848 46.374723882680144 73.87528767507382 0 0 0
3727 173 44 -0.75 41.14085189103013 50.06275106466085 72.45891438006565 0 0 0
3728 173 44 -0.75 39.318444795586615 45.663065582273944 73.98259414778293 0 0 0
3729 173 44 -0.75 40.59305558663129 44.71745100574231 69.241161832121 0 0 0
3730 173 44 -0.75 37.53728916120923 47.41829841826111 72.13386209442848 0 0 0
3731 174 44 -0.75 38.99953588259773 96.33339744147726 52.70687273489656 0 0 0
3732 174 44 -0.75 37.82875318742158 101.0916264069171 53.70111867686734 0 0 0
3733 174 44 -0.75 37.36734740740383 105.1585433741626 56.572928400316435 0 0 0
3734 174 44 -0.75 32.968355185985 105.14603218534457 58.94963008669842 0 0 0
3735 174 44 -0.75 32.202435790047765 106.3971549242151 63.729594455938866 0 0 0
3736 174 44 -0.75 35.000253280105255 105.69705825843495 67.81396490325287 0 0 0
3737 174 44 -0.75 38.32361907342573 2.5407113919036988 67.89248033434058 0 1 0
3738 174 44 -0.75 41.48850198333213 106.06662654893246 65.97978023616521 0 0 0
3739 174 44 -0.75 36.81592871299204 104.59992668129186 64.9718861288472 0 0 0
3740 174 44 -0.75 38.80148976084396 100.1334269708936 66.02446755670229 0 0 0
3741 175 44 -0.75 22.13690339052143 105.87209351307692 26.955848613144724 0 0 0
3742 175 44 -0.75 21.440848768897723 3.4494830550565467 24.82341370459384 0 1 0
3743 175 44 -0.75 24.16673294147533 1.0422204278192027 21.391993864178325 0 1 0
3744 175 44 -0.75 26.57558121572613 3.1173137859686904 17.533051321641214 0 1 0
3745 175 44 -0.75 22.785555906418107 5.242836128735831 20.006482728655023 0 1 0
3746 175 44 -0.75 26.404070404721672 8.567805724732324 20.928941405922384 0 1 0
3747 175 44 -0.75 25.65050193031908 9.801247799960436 25.715459472475935 0 1 0
3748 175 44 -0.75 22.628016414696074 12.116759851824014 22.474628522623163 0 1 0
3749 175 44 -0.75 26.87807263183682 10.904007702417374 24.812630741452924 0 1 0
3750 175 44 -0.75 27.435682040829462 15.44583021297177 22.7974582849063 0 1 0
3751 176 44 -0.75 82.77535832049156 22.41963509836993 55.24872971786765 0 0 0
3752 176 44 -0.75 82.97983411417307 20.9148892320636 50.48491511949878 0 0 0
3753 176 44 -0.75 84.7308345190097 19.309197294429033 54.88443225023907 0 0 0
3754 176 44 -0.75 81.86792594087002 21.80086351600404 58.139482774190476 0 0 0
3755 176 44 -0.75 84.35432061332128 18.35063714156247 60.768889455918085 0 0 0
3756 176 44 -0.75 82.67807390753347 19.689889116810203 56.252629816777464 0 0 0
3757 176 44 -0.75 82.43886418344995 15.857046581638588 59.45451938521719 0 0 0
3758 176 44 -0.75 79.45561305250764 17.158570626396287 63.250075714749 0 0 0
3759 176 44 -0.75 83.38818001360356 15.904431259597956 60.42836496679068 0 0 0
3760 176 44 -0.75 85.28958436572997 11.582652178966853 58.783102960928346 0 0 0
3761 177 44 -0.75 85.94636060520534 42.685208911951285 22.70737406448166 0 0 0
3762 177 44 -0.75 82.14226700549987 43.241031580687 25.904237065237147 0 0 0
3763 177 44 -0.75 85.46747892154617 40.09124788560542 23.898787393073327 0 0 0
3764 177 44 -0.75 81.68019914763579 41.209380867783864 26.965755040162886 0 0 0
3765 177 44 -0.75 77.6880696819525 42.71520287345176 24.35895577353924 0 0 0
3766 177 44 -0.75 81.83069968093939 45.49131705804746 24.72200773342984 0 0 0
3767 177 44 -0.75 80.73437350345239 49.96407890921521 26.66943432647389 0 0 0
3768 177 44 -0.75 84.83819741384197 51.26654499692242 24.12734632585562 0 0 0
3769 177 44 -0.75 81.87139800609789 51.45183694839749 28.147765230264454 0 0 0
3770 177 44 -0.75 81.50700285432747 52.19918028486197 33.07815001350484 0 0 0
3771 178 44 -0.75 105.23480855507641 104.50683862136448 14.233841522870078 0 0 0
3772 178 44 -0.75 1.6469240138302297 103.96156557560913 10.520240711957587 1 0 0
3773 178 44 -0.75 4.976085564235021 105.3305895614373 13.99046501271014 1 0 0
3774 178 44 -0.75 9.78178496157038 104.1980618449237 14.77953679257498 1 0 0
3775 178 44 -0.75 8.834957857008988 99.45003831811498 13.530620853474703 1 0 0
3776 178 44 -0.75 5.00025136314494 100.81253716127536 16.43555166302998 1 0 0
3777 178 44 -0.75 8.66895436034251 104.13975753177391 15.749823637867648 1 0 0
3778 178 44 -0.75 11.927662374387154 1.0405343962753761 15.792098258261785 1 1 0
3779 178 44 -0.75 14.465272778113729 1.4722671759701882 20.078605023197035 1 1 0
3780 178 44 -0.75 13.834206722998744 4.871435606604507 23.690724845996474 1 1 0
3781 179 44 -0.75 104.34958142569018 45.84176254091365 101.74166291904828 0 0 0
3782 179 44 -0.75 100.71739527898578 44.89749361916214 98.43778943492349 0 0 0
3783 179 44 -0.75 98.81687429654812 44.39092097219334 93.84089873047367 0 0 0
3784 179 44 -0.75 98.16589069198331 39.46432214265684 94.39302581674765 0 0 0
3785 179 44 -0.75 102.70939180513317 39.11827224732533 92.3346655215741 0 0 0
3786 179 44 -0.75 103.6192425845101 40.26833034001983 87.55454649139347 0 0 0
3787 179 44 -0.75 99.72379141939145 40.80030185065646 84.46545819028475 0 0 0
3788 179 44 -0.75 100.05419082935015 36.23712435598583 82.44846850711073 0 0 0
3789 179 44 -0.75 99.57341633480792 33.93378101523316 86.86021026519313 0 0 0
3790 179 44 -0.75 97.11617575876187 38.18826243583332 87.78830325256072 0 0 0
3791 180 44 -0.75 25.066168622858658 79.60395778359295 8.2401568511757 0 0 0
3792 180 44 -0.75 27.254500014106398 75.51511901228828 6.371306074801228 0 0 0
3793 180 44 -0.75 25.91735441748088 76.95671947293562 10.96846060399495 0 0 0
3794 180 44 -0.75 29.185649527486575 74.22911404345851 8.345787216971726 0 0 0
3795 180 44 -0.75 30.268733376862244 69.68414034583262 6.565297547495829 0 0 0
3796 180 44 -0.75 30.602245948857462 67.15896335506498 2.2627110545106053 0 0 0
3797 180 44 -0.75 27.384019059779572 63.39526676829501 1.5716222807976272 0 0 0
3798 180 44 -0.75 29.31599846915273 58.97294488710262 0.2637519734333542 0 0 0
3799 180 44 -0.75 24.6359085318403 59.60718798420331 1.9052433296235267 0 0 0
3800 180 44 -0.75 29.61799468700671 59.31553862899326 1.5990437278851355 0 0 0
3801 181 44 -0.75 10.452301485835946 17.495202880153933 52.81738308343415 0 0 0
3802 181 44 -0.75 14.614756990555652 19.81754554584068 54.327578009382314 0 0 0
3803 181 44 -0.75 15.273676428668086 22.767572296708533 50.3447188173895 0 0 0
3804 181 44 -0.75 16.557363010821028 20.327128656633533 54.51561603482581 0 0 0
3805 181 44 -0.75 12.117478085462974 21.413816490576924 56.54207388070806 0 0 0
3806 181 44 -0.75 14.571108238808968 25.7162568913571 57.22669470154673 0 0 0
3807 181 44 -0.75 13.794726455748743 30.653702060056673 57.089339202867265 0 0 0
3808 181 44 -0.75 18.329397737544944 30.491684883497093 59.18945986619888 0 0 0
3809 181 44 -0.75 14.62219587590042 31.308911391321175 62.4435027657208 0 0 0
3810 181 44 -0.75 10.470985194228014 31.074404948023457 65.22063376810812 0 0 0
3811 182 44 -0.75 48.19355615232788 85.86450397417192 68.28451621272197 0 0 0
3812 182 44 -0.75 47.675793073475 89.90624924876684 71.18213877776844 0 0 0
3813 182 44 -0.75 48.60332966828297 86.09034330308339 68.08721750591197 0 0 0
3814 182 44 -0.75 47.94883512913336 85.4550600783733 73.00331881921149 0 0 0
3815 182 44 -0.75 50.69947026490809 82.77580050100745 69.80088623335821 0 0 0
3816 182 44 -0.75 54.80838789441343 85.32850536280291 71.06599247494667 0 0 0
3817 182 44 -0.75 57.97751380471868 86.14705734411659 74.84575617371401 0 0 0
3818 182 44 -0.75 56.41118723097504 90.7022672460419 76.18616052083699 0 0 0
3819 182 44 -0.75 59.22179981903295 94.82670923124749 75.88710335151352 0 0 0
3820 182 44 -0.75 61.33780575800713 99.11828174095152 77.33793906246729 0 0 0
3821 183 44 -0.75 22.372384218070625 67.52073146120513 81.1419816997041 0 0 0
3822 183 44 -0.75 17.824117907025986 68.38561683915958 83.03016782580951 0 0 0
3823 183 44 -0.75 18.663650328833732 69.89935960395985 78.33935039653895 0 0 0
3824 183 44 -0.75 21.97372467015256 73.52872389886711 79.27268992200383 0 0 0
3825 183 44 -0.75 26.955568143929572 73.36422412972584 79.66534171270122 0 0 0
3826 183 44 -0.75 27.156979221202363 71.42544570943062 75.0609338446959 0 0 0
3827 183 44 -0.75 23.97386638713109 75.27127229460189 74.78270630766782 0 0 0
3828 183 44 -0.75 27.56067382970112 74.42565415822553 78.16201723407806 0 0 0
3829 183 44 -0.75 22.932072705082792 76.08708431098214 79.06517916678622 0 0 0
3830 183 44 -0.75 24.20357190491242 75.86740215123778 74.23454468118057 0 0 0
3831 184 44 -0.75 14.098902771928417 44.17961092488248 50.588935260362135 0 0 0
3832 184 44 -0.75 9.84874338169103 42.5202333013005 52.634078546279376 0 0 0
3833 184 44 -0.75 13.799189748958018 40.687398850658646 50.177517662464886 0 0 0
3834 184 44 -0.75 15.22275137505318 35.987843574881815 49.235364539757406 0 0 0
3835 184 44 -0.75 17.30322391977759 31.686073642109477 50.707237304687794 0 0 0
3836 184 44 -0.75 13.359034165591844 33.81979491496157 48.49576704426044 0 0 0
3837 184 44 -0.75 18.17009982474213 32.890739658695225 49.49100749467866 0 0 0
3838 184 44 -0.75 18.83295888224645 34.31236011650563 44.74341724868866 0 0 0
3839 184 44 -0.75 20.801150271126627 38.85147920387526 45.46634225684278 0 0 0
3840 184 44 -0.75 25.737927627138415 38.08359789587005 45.66277961068735 0 0 0
3841 185 44 -0.75 44.26746968766308 77.95844738304156 35.53745200573769 0 0 0
3842 185 44 -0.75 45.747918579899356 82.72110453128683 35.89152539607448 0 0 0
3843 185 44 -0.75 48.6062317190283 86.82245396318253 35.98628211705852 0 0 0
3844 185 44 -0.75 48.40761064313686 81.88513301553144 35.222468312458496 0 0 0
3845 185 44 -0.75 52.154654275859265 84.77527295608948 36.837013182837026 0 0 0
3846 185 44 -0.75 53.73155885734254 85.64871464105681 41.50075326605977 0 0 0
3847 185 44 -0.75 52.83621186083097 80.73782262240168 41.21528288765424 0 0 0
3848 185 44 -0.75 52.91284889559189 84.94386528622299 38.51281514963812 0 0 0
3849 185 44 -0.75 55.627820215115534 89.08088934120819 37.79590322852242 0 0 0
3850 185 44 -0.75 52.15923595801912 86.0354398210949 35.873883334800034 0 0 0
3851 186 44 -0.75 82.58241342545219 80.69902227255888 25.9301573212766 0 0 0
3852 186 44 -0.75 81.22674260391486 79.60197788881301 30.616163109122358 0 0 0
3853 186 44 -0.75 84.86296135046167 80.2968401773814 27.25534778733108 0 0 0
3854 186 44 -0.75 80.59132973186775 78.31361197676611 25.576071389797633 0 0 0
3855 186 44 -0.75 78.24227675394813 82.66156786477852 26.33582773417737 0 0 0
3856 186 44 -0.75 73.8530776341536 82.89537267575909 23.95249678838799 0 0 0
3857 186 44 -0.75 75.70542539583185 85.10269560020878 19.866357623234105 0 0 0
3858 186 44 -0.75 75.32523301254868 80.76679994159983 22.327142577135916 0 0 0
3859 186 44 -0.75 73.79678115429328 78.10067372388022 18.383083005047308 0 0 0
3860 186 44 -0.75 75.4505790754359 82.40867496608682 20.308200594487168 0 0 0
3861 187 44 -0.75 25.77485131619442 57.4005429580658 50.054396502893255 0 0 0
3862 187 44 -0.75 24.46003838407319 60.734083744673036 46.56745331758714 0 0 0
3863 187 44 -0.75 27.065010044393713 60.782019776996805 50.83498478035715 0 0 0
3864 187 44 -0.75 28.53118763482702 56.61184297212815 48.4983314707182 0 0 0
3865 187 44 -0.75 31.415556176698352 60.05607254603575 50.693257609995634 0 0 0
3866 187 44 -0.75 35.82412312585293 58.34855746611111 49.06570432157406 0 0 0
3867 187 44 -0.75 35.41010396198442 54.34409761813143 46.10042365056361 0 0 0
3868 187 44 -0.75 35.22408039909579 53.6061483414315 41.158680425843386 0 0 0
3869 187 44 -0.75 38.257311296176404 57.053556229034406 39.180072536066135 0 0 0
3870 187 44 -0.75 39.94854102772007 52.3939080111964 38.52629850695375 0 0 0
3871 188 44 -0.75 95.92580822147653 87.47757771320995 20.89541329403881 0 0 0
3872 188 44 -0.75 95.95195064594695 92.12160952753592 19.042770565078094 0 0 0
3873 188 44 -0.75 92.81378938805771 95.48584860217323 17.084751318960617 0 0 0
3874 188 44 -0.75 97.69349497049932 95.31635100808646 16.007837211760293 0 0 0
3875 188 44 -0.75 95.9564354820809 93.05558728026543 11.900335330973824 0 0 0
3876 188 44 -0.75 97.58263011638496 97.66266624539838 10.837172869075259 0 0 0
3877 188 44 -0.75 100.26498939152317 95.99545807929451 6.960916214781516 0 0 0
3878 188 44 -0.75 104.2155022166381 99.0563885626471 6.8055038771587695 0 0 0
3879 188 44 -0.75 101.36154887616013 96.11151199864436 3.944970298757353 0 0 0
3880 188 44 -0.75 99.54378216102609 97.14633496773341 106.29470249721784 0 0 -1
3881 189 44 -0.75 6.722195939377289 19.20657148095362 9.780167532097552 0 0 0
3882 189 44 -0.75 9.836724897823466 20.22671548874502 13.556278702384715 0 0 0
3883 189 44 -0.75 9.576390188255433 18.780527539122097 18.335480126614456 0 0 0
3884 189 44 -0.75 6.838195781149695 14.722979305894434 19.354594312525883 0 0 0
3885 189 44 -0.75 11.512907031709414 13.273356613465523 18.332014842027114 0 0 0
3886 189 44 -0.75 11.59288394366234 8.848667379090625 20.659186703484995 0 0 0
3887 189 44 -0.75 11.472556939568966 8.189804743055806 15.704247608105199 0 0 0
3888 189 44 -0.75 15.458997878683506 11.096771516454066 14.893178673112564 0 0 0
3889 189 44 -0.75 16.25231958320785 7.055388824517154 12.058065516562486 0 0 0
3890 189 44 -0.75 15.48364244588463 11.717665603280393 10.423345143911048 0 0 0
3891 190 44 -0.75 73.49801369284225 2.10930310688745 44.57945034134939 0 0 0
3892 190 44 -0.75 78.48868837128724 2.091618555799191 44.884169081470176 0 0 0
3893 190 44 -0.75 81.8275831603084 5.8051939851463406 44.63690582419865 0 0 0
3894 190 44 -0.75 81.55112898871924 7.222401770823003 49.4238772240744 0 0 0
3895 190 44 -0.75 78.04876494738942 6.2286289264432995 52.85110083156974 0 0 0
3896 190 44 -0.75 74.44473583439364 8.994824477546512 50.763246352508595 0 0 0
3897 190 44 -0.75 78.91582337579426 7.285779509316086 52.20842505900077 0 0 0
3898 190 44 -0.75 80.7603613523061 9.96796649816043 48.41322379818735 0 0 0
3899 190 44 -0.75 77.06935534976296 9.458695163819883 45.078989643661096 0 0 0
3900 190 44 -0.75 73.05267673668868 12.322473865590602 44.2634747961224 0 0 0
3901 191 44 -0.75 15.248084595630795 104.2071440123628 39.69157492553332 0 0 0
3902 191 44 -0.75 16.577636871313896 2.115528536828961 39.24846434337318 0 1 0
3903 191 44 -0.75 17.92230248729286 106.48179604751482 35.14765637429248 0 0 0
3904 191 44 -0.75 16.966595158513705 103.5544736513072 39.08687039365968 0 0 0
3905 191 44 -0.75 15.991348832545894 103.04768327809957 43.96458072959706 0 0 0
3906 191 44 -0.75 11.262310633504867 101.6209448272379 43.189587113595174 0 0 0
3907 191 44 -0.75 7.345220592010507 102.59535943529175 46.1403364723915 0 0 0
3908 191 44 -0.75 5.05153165581023 104.38675685030464 50.20603276766955 0 0 0
3909 191 44 -0.75 8.053671948901048 1.4679590433257061 50.66125868225245 0 1 0
3910 191 44 -0.75 5.337107859756811 4.570511135837833 53.48870453722839 0 1 0
3911 192 44 -0.75 25.57904095226073 49.94705433721851 16.710908989526253 0 0 0
3912 192 44 -0.75 28.756767996451536 52.643339773294386 19.473533770386563 0 0 0
3913 192 44 -0.75 27.15714064014209 54.0313892142797 14.944239005158007 0 0 0
3914 192 44 -0.75 25.96472244745145 49.5127643010071 16.7219250704948 0 0 0
3915 192 44 -0.75 29.43259177501521 51.834048281424124 19.476107891079117 0 0 0
3916 192 44 -0.75 26.69630108410219 54.128436563586185 22.97589297955243 0 0 0
3917 192 44 -0.75 26.487956453875732 51.37291291111198 18.80891782775334 0 0 0
3918 192 44 -0.75 28.78846249412406 51.469339514625354 23.247202842138496 0 0 0
3919 192 44 -0.75 32.75549460075071 53.447833571168864 20.934581486789693 0 0 0
3920 192 44 -0.75 35.05917640259625 54.68336925395639 25.1967994226072 0 0 0
3921 193 44 -0.75 106.49014867324647 88.88501695887894 38.55244081939429 0 0 0
3922 193 44 -0.75 3.943265685966125 90.62831735550266 36.79520582272284 1 0 0
3923 193 44 -0.75 3.1648486397161264 89.40829437035129 41.58118647644573 1 0 0
3924 193 44 -0.75 0.7096760417178132 89.37673546953434 45.936772722844424 1 0 0
3925 193 44 -0.75 3.7694235524100037 91.69297400527248 42.731623082597565 1 0 0
3926 193 44 -0.75 3.760369873652749 94.31438180595312 46.98933833533953 1 0 0
3927 193 44 -0.75 5.501934116671805 96.33933913607102 42.762459841860064 1 0 0
3928 193 44 -0.75 3.3479874648547963 93.12723619263662 45.93151466970801 1 0 0
3929 193 44 -0.75 1.1777247804740512 93.48455331193935 41.44127142941048 1 0 0
3930 193 44 -0.75 0.8503246237693247 98.36009064617473 40.382052453057284 1 0 0
3931 194 44 -0.75 101.50422437459359 84.36846527665023 21.21061379430684 0 0 0
3932 194 44 -0.75 101.83565980585148 80.21871783206822 18.441183040326518 0 0 0
3933 194 44 -0.75 103.36719855605132 79.65757727489456 23.167652159207034 0 0 0
3934 194 44 -0.75 105.6425888523715 75.20747968274256 23.306325948132464 0 0 0
3935 194 44 -0.75 106.82144516197143 78.89200349683448 20.138585102560345 0 0 0
3936 194 44 -0.75 4.903826670965842 79.09805415866508 19.668371951799653 1 0 0
3937 194 44 -0.75 3.119521760907247 81.318579883017 23.77757156917433 1 0 0
3938 194 44 -0.75 5.554182655533609 76.95919424145822 24.03869061548909 1 0 0
3939 194 44 -0.75 9.882481714572279 78.27395962422219 26.16876555403244 1 0 0
3940 194 44 -0.75 12.028181833634264 78.65749162694895 21.668890644444197 1 0 0
3941 195 44 -0.75 1.6294251638010377 64.17583736615671 77.38647122294317 0 0 0
3942 195 44 -0.75 0.18904013892945648 65.92922543526416 72.93103395380366 0 0 0
3943 195 44 -0.75 102.70869045200982 66.47007285604624 75.2968528819133 -1 0 0
3944 195 44 -0.75 0.6646798361371324 67.57145983209054 75.83701056783579 0 0 0
3945 195 44 -0.75 1.1439618188647747 70.53494517093823 71.83850541872475 0 0 0
3946 195 44 -0.75 106.75829117474683 75.36789483933104 71.94903555673002 -1 0 0
3947 195 44 -0.75 1.8184711313575752 76.08107451149266 67.40112190255935 0 0 0
3948 195 44 -0.75 103.90466141471656 74.7198583786015 67.64410377127987 -1 0 0
3949 195 44 -0.75 106.42988465233755 77.0821878446544 64.03264325038293 -1 0 0
3950 195 44 -0.75 3.010749995664627 78.88888357843742 67.14401945071772 0 0 0
3951 196 44 -0.75 37.34490566893022 22.003806708147202 15.729898096576578 0 0 0
3952 196 44 -0.75 41.49876678969565 21.745229694216462 18.500922404889305 0 0 0
3953 196 44 -0.75 44.81236473945333 25.135691325263924 16.911948347279587 0 0 0
3954 196 44 -0.75 41.99006582586287 24.810172551591965 12.797502288533254 0 0 0
3955 196 44 -0.75 39.362234406160596 23.034017295072335 8.93230183650451 0 0 0
3956 196 44 -0.75 37.27739856863387 18.97551715429358 10.977304559696606 0 0 0
3957 196 44 -0.75 35.12285786682697 14.48640146812905 10.523658529747056 0 0 0
3958 196 44 -0.75 33.10152226311786 19.04665281182369 10.867620823478674 0 0 0
3959 196 44 -0.75 37.5205184332019 21.38012687948676 11.033064542992419 0 0 0
3960 196 44 -0.75 38.69861938947408 25.785089887250695 8.981631132651769 0 0 0
3961 197 44 -0.75 93.9780787422011 90.10485016517542 12.141710142023978 0 0 0
3962 197 44 -0.75 93.96248133069676 95.09420565789907 12.467422419936213 0 0 0
3963 197 44 -0.75 96.32731188765729 97.2199022572754 8.608796964639248 0 0 0
3964 197 44 -0.75 95.82808156250728 97.456967723429 13.578160007042971 0 0 0
3965 197 44 -0.75 95.11343127463056 92.56708595188968 12.817679089198759 0 0 0
3966 197 44 -0.75 91.68644129210705 96.15856378528566 12.220162033451606 0 0 0
3967 197 44 -0.75 94.71816461392842 99.81992673271571 13.77034752787179 0 0 0
3968 197 44 -0.75 94.81939795053795 103.1491050230661 10.041229170589654 0 0 0
3969 197 44 -0.75 92.83946426026306 100.61164124201541 6.214854889109809 0 0 0
3970 197 44 -0.75 96.34133002462279 103.03197776884977 8.837621989955137 0 0 0
3971 198 44 -0.75 99.08004478537028 62.732590904213865 35.417166794588006 0 0 0
3972 198 44 -0.75 95.30539507254474 65.46817460241134 37.225094164706164 0 0 0
3973 198 44 -0.75 92.20188585855514 69.05221803339346 38.81344653226055 0 0 0
3974 198 44 -0.75 94.94229916296271 70.6651949669819 42.67200070872842 0 0 0
3975 198 44 -0.75 90.46107857786757 72.12444806804616 41.001898180512306 0 0 0
3976 198 44 -0.75 90.652226441746 68.72951842799398 37.336121968953584 0 0 0
3977 198 44 -0.75 91.67183857552216 68.84012655424168 42.22980738375748 0 0 0
3978 198 44 -0.75 88.18850976783894 71.46141764534974 44.67832804596183 0 0 0
3979 198 44 -0.75 92.56685538630083 69.43325853475321 45.98854187103004 0 0 0
3980 198 44 -0.75 93.89050577738602 69.52423496219974 50.809296265502866 0 0 0
3981 199 44 -0.75 101.93861536791916 67.17378761944227 95.90165357609663 0 0 0
3982 199 44 -0.75 98.07473406397226 70.23570960078109 96.73535319178788 0 0 0
3983 199 44 -0.75 102.35887238323805 70.8057455557511 94.22114996383675 0 0 0
3984 199 44 -0.75 101.15819783450584 72.96743759255466 89.87540858105213 0 0 0
3985 199 44 -0.75 99.38843542241007 73.39020115227713 94.5325763874881 0 0 0
3986 199 44 -0.75 95.9657241079888 77.03400928831363 94.44477248161337 0 0 0
3987 199 44 -0.75 100.01588606932404 78.14874185750851 97.1565171941793 0 0 0
3988 199 44 -0.75 96.76684177833287 80.63072682986616 94.27841681508053 0 0 0
3989 199 44 -0.75 98.4533691603864 76.36300027816499 92.29293564682722 0 0 0
3990 199 44 -0.75 101.79394154853806 80.06281298775984 91.90311256716268 0 0 0
3991 200 44 -0.75 34.7138980387275 2.8725071700564166 11.10604179011163 0 0 0
3992 200 44 -0.75 32.1004932575745 4.453459562490198 15.064665917596395 0 0 0
3993 200 44 -0.75 37.09897602613885 4.576101635015685 15.076020846566426 0 0 0
3994 200 44 -0.75 34.229939602202606 8.66898741546975 14.945959375392087 0 0 0
3995 200 44 -0.75 36.044672005825376 5.4604239584611864 18.324104849700554 0 0 0
3996 200 44 -0.75 35.84604498090707 4.8041269012328724 23.2768638260334 0 0 0
3997 200 44 -0.75 32.010158408719896 4.753131700297585 26.48363380450016 0 0 0
3998 200 44 -0.75 28.445233140101834 4.708789293422501 22.978018083956766 0 0 0
3999 200 44 -0.75 30.381312148295454 7.91674060556005 19.667331379814105 0 0 0
4000 200 44 -0.75 25.411549062765467 8.448802194797862 19.531812602660526 0 0 0
4001 201 44 -0.75 45.84161361983533 64.16006762772248 89.13745861547385 0 0 0
4002 201 44 -0.75 50.00827592465741 63.28551784644954 91.75930680285049 0 0 0
4003 201 44 -0.75 50.63583243482495 62.601403351314325 96.67236696776729 0 0 0
4004 201 44 -0.75 55.59002207584728 62.99236230327026 96.12177083749346 0 0 0
4005 201 44 -0.75 58.63476167584397 63.03179017795777 92.15591579590286 0 0 0
4006 201 44 -0.75 63.06073892310843 61.22009556003205 90.69698193239968 0 0 0
4007 201 44 -0.75 64.43434926325868 60.26602632130937 95.40898219992465 0 0 0
4008 201 44 -0.75 69.22233566511186 58.86083759025029 95.09175854731706 0 0 0
4009 201 44 -0.75 73.14131014711326 61.94804654691872 95.42459464404949 0 0 0
4010 201 44 -0.75 70.5768858727559 63.846124827062994 99.27440333845642 0 0 0
4011 202 44 -0.75 68.75607826534011 77.79874412417793 12.306716976500217 0 0 0
4012 202 44 -0.75 73.30594939763854 78.08869961543904 14.3596657076099 0 0 0
4013 202 44 -0.75 74.42293778828817 81.74398919104057 17.583203368884043 0 0 0
4014 202 44 -0.75 75.58265073316078 84.19155702862957 21.786116354646982 0 0 0
4015 202 44 -0.75 76.71624965495359 86.39872754133347 26.12700932872047 0 0 0
4016 202 44 -0.75 81.19297649278059 85.29881465414593 24.190747863918197 0 0 0
4017 202 44 -0.75 78.36639193789081 86.39530146460618 28.16669258543348 0 0 0
4018 202 44 -0.75 81.52274870759084 89.77917311466683 26.27280119512499 0 0 0
4019 202 44 -0.75 84.82892867443668 92.8970376178382 24.187592580455664 0 0 0
4020 202 44 -0.75 87.67516228576756 96.75201656266917 22.75997513707656 0 0 0
4021 203 44 -0.75 75.44314457322275 69.50331502220946 79.16442835577543 0 0 0
4022 203 44 -0.75 79.45514276119441 68.91138985639482 82.08906425410319 0 0 0
4023 203 44 -0.75 75.06232007338444 71.07142629245594 81.07055974829561 0 0 0
4024 203 44 -0.75 79.91428960805851 69.90283778387366 80.76594108142814 0 0 0
4025 203 44 -0.75 80.44634749759913 74.8689384674271 80.99994621596088 0 0 0
4026 203 44 -0.75 84.45251723577196 72.60949968194336 79.03894126859332 0 0 0
4027 203 44 -0.75 80.31828826755326 72.68666608146377 81.85002578975705 0 0 0
4028 203 44 -0.75 77.66096971731223 70.87291651734643 85.67742316149794 0 0 0
4029 203 44 -0.75 82.46387613036993 69.71038658045862 86.43940356364016 0 0 0
4030 203 44 -0.75 86.78185772505486 72.02878670568744 87.4293812438437 0 0 0
4031 204 44 -0.75 78.99747568308752 21.286835790923252 22.821448333108247 0 0 0
4032 204 44 -0.75 74.88309801052797 23.79692092863575 21.49052047293762 0 0 0
4033 204 44 -0.75 77.45474003854308 26.62199197204777 18.264744460964494 0 0 0
4034 204 44 -0.75 75.61343160863076 23.76398933391058 21.93099652353939 0 0 0
4035 204 44 -0.75 73.4458836716808 23.72482833285395 26.43657111031744 0 0 0
4036 204 44 -0.75 72.13824262590192 24.911786817188542 21.758836140071644 0 0 0
4037 204 44 -0.75 71.18483093035556 27.95141878808343 25.61261916721641 0 0 0
4038 204 44 -0.75 71.53355864543119 31.823364685449835 28.756887595421226 0 0 0
4039 204 44 -0.75 71.1767135515436 34.736696053187245 32.804746525859095 0 0 0
4040 204 44 -0.75 68.12546357769395 36.16317089051468 29.109473445888657 0 0 0
4041 205 44 -0.75 62.80452076239175 98.33689900976793 97.58988631182356 0 0 0
4042 205 44 -0.75 65.8687878629492 101.92759273662224 95.94149749350116 0 0 0
4043 205 44 -0.75 61.83481047932511 99.81070642262864 93.8809590196949 0 0 0
4044 205 44 -0.75 59.309147742307786 101.8793298843047 97.66801918724512 0 0 0
4045 205 44 -0.75 55.36848930899029 103.43047460726585 100.32605627508899 0 0 0
4046 205 44 -0.75 57.89528396183318 104.03476688230693 96.05403806015939 0 0 0
4047 205 44 -0.75 58.22865682273192 106.19453569205709 91.55689883349022 0 0 0
4048 205 44 -0.75 60.20293939398167 2.591666519003766 94.7645670187707 0 1 0
4049 205 44 -0.75 56.03753002508286 2.464607454872791 97.52739542164196 0 1 0
4050 205 44 -0.75 54.59038677171294 104.59578264792881 97.02939187591241 0 0 0
4051 206 44 -0.75 35.66021177928634 7.765385482033408 47.95175396645823 0 0 0
4052 206 44 -0.75 31.135168924500885 8.366259659049186 49.99208173075265 0 0 0
4053 206 44 -0.75 27.60485562922986 10.130174124002183 53.06217843893013 0 0 0
4054 206 44 -0.75 28.510141823948427 14.401283538566922 50.62536058064273 0 0 0
4055 206 44 -0.75 25.30399698476681 13.058210742271907 47.03136687808267 0 0 0
4056 206 44 -0.75 20.40416363044229 12.775868052079131 46.07642410223499 0 0 0
4057 206 44 -0.75 18.390869467350786 12.668163311211142 50.65190727908705 0 0 0
4058 206 44 -0.75 20.5598020530118 16.790406302933427 48.83453440703951 0 0 0
4059 206 44 -0.75 16.958371455726187 18.39931855382691 45.76189726252345 0 0 0
4060 206 44 -0.75 15.043155084191211 14.609073795568706 48.40121363664395 0 0 0
4061 207 44 -0.75 25.405034669276265 57.64241663985644 78.65177771626611 0 0 0
4062 207 44 -0.75 29.50617765932684 58.63671383533872 81.33356802540945 0 0 0
4063 207 44 -0.75 26.053323796804023 55.7584051526412 79.14424408154701 0 0 0
4064 207 44 -0.75 30.09906643788941 58.146721998225246 77.43313066414801 0 0 0
4065 207 44 -0.75 25.42376335863941 56.84139885257357 78.63216052306791 0 0 0
4066 207 44 -0.75 26.706878626145357 56.75123067550074 83.46387708244269 0 0 0
4067 207 44 -0.75 25.366617289257764 60.78019793931847 80.82358877698637 0 0 0
4068 207 44 -0.75 30.008143661940252 60.1827629023387 82.58407288889478 0 0 0
4069 207 44 -0.75 31.662859424143456 64.3958430284462 80.45995622606425 0 0 0
4070 207 44 -0.75 28.20557018737885 67.98909368983365 80.09158030694064 0 0 0
4071 208 44 -0.75 81.28178247900625 53.85674545011891 64.32277341358828 0 0 0
4072 208 44 -0.75 85.32670056159242 51.33248264542437 62.81720541512286 0 0 0
4073 208 44 -0.75 89.99640157959676 49.54890005728392 62.930013011194 0 0 0
4074 208 44 -0.75 88.94200486703586 45.18051341707415 65.12214570201762 0 0 0
4075 208 44 -0.75 91.81494312470778 41.12140036145401 64.60269698530044 0 0 0
4076 208 44 -0.75 96.162743945413 40.009583173843374 62.398044957245084 0 0 0
4077 208 44 -0.75 96.44031955584569 39.42640479255874 67.35615495563107 0 0 0
4078 208 44 -0.75 94.89943750318827 35.125249564658446 69.38734825152986 0 0 0
4079 208 44 -0.75 95.89507444019908 30.2885736954756 68.6029544562178 0 0 0
4080 208 44 -0.75 100.89046211124469 30.430477484566325 68.7640920700989 0 0 0
4081 209 44 -0.75 98.22365695249624 79.75034462374207 105.48252007604592 0 0 0
4082 209 44 -0.75 96.57833972239195 75.27700048041248 0.1019969916370087 0 0 1
4083 209 44 -0.75 96.40833483023349 71.40340551546254 3.2589512808462473 0 0 1
4084 209 44 -0.75 92.20946645266075 72.82287356121094 0.9449472153962972 0 0 1
4085 209 44 -0.75 94.65972356429555 73.76174112328621 103.57999543769633 0 0 0
4086 209 44 -0.75 97.73399200636439 71.68779113678237 0.04254742761084174 0 0 1
4087 209 44 -0.75 94.78459880103884 73.76148204862292 103.46951090354531 0 0 0
4088 209 44 -0.75 89.81811437510878 74.29834650070303 103.25548051531307 0 0 0
4089 209 44 -0.75 89.23549430280178 75.52203293925062 1.1770981295408092 0 0 1
4090 209 44 -0.75 87.09033357482967 71.18071990612313 2.422604692977373 0 0 1
4091 210 44 -0.75 8.050180354427022 77.54480674466318 106.54996969148871 0 0 0
4092 210 44 -0.75 10.259373168495145 75.22066345173327 102.71358792422431 0 0 0
4093 210 44 -0.75 10.687620875214062 77.34155132125875 0.32999286125138383 0 0 1
4094 210 44 -0.75 14.402075905343406 80.67138515147533 106.8820243383916 0 0 0
4095 210 44 -0.75 12.72820370554501 79.41122323361998 102.3421847157255 0 0 0
4096 210 44 -0.75 11.908820746353388 78.14674336455026 0.2185595314667097 0 0 1
4097 210 44 -0.75 11.73487110284079 75.23875947131849 103.0460877134817 0 0 0
4098 210 44 -0.75 11.331056576306066 71.42566362030055 99.83715738405581 0 0 0
4099 210 44 -0.75 11.35789465198941 73.05903574244267 95.11154893346423 0 0 0
4100 210 44 -0.75 6.909932784887616 75.04349532614955 93.98125897533745 0 0 0
4101 211 44 -0.75 43.58548960742923 0.24454912672157603 18.287472200883936 0 0 0
4102 211 44 -0.75 45.490679875507574 103.0069619486946 16.20818750475831 0 -1 0
4103 211 44 -0.75 42.47679781667775 0.09360354305679852 16.513715602231596 0 0 0
4104 211 44 -0.75 39.119967644451016 2.5064828640552137 13.701295900777627 0 0 0
4105 211 44 -0.75 34.89008078319945 1.3568012914198238 11.295825172925378 0 0 0
4106 211 44 -0.75 33.00208572474088 5.986202283350552 11.231629260697087 0 0 0
4107 211 44 -0.75 35.07815951844193 10.532101839328151 11.074419750582674 0 0 0
4108 211 44 -0.75 30.43971613618898 12.261046753065758 11.778403042213018 0 0 0
4109 211 44 -0.75 26.070264438691805 13.246698766845435 14.000200056112153 0 0 0
4110 211 44 -0.75 30.708224749553565 13.877549577849384 12.24197612011119 0 0 0
4111 212 44 -0.75 72.12964746127561 58.30683402856763 106.53121739185816 0 0 0
4112 212 44 -0.75 68.7564984604938 61.9945927984341 106.3818819513303 0 0 0
4113 212 44 -0.75 68.04249249147017 57.553802308411086 1.6746247557974954 0 0 1
4114 212 44 -0.75 67.12175014719386 52.77766339895149 2.8325239970973115 0 0 1
4115 212 44 -0.75 66.62525798190975 57.64793173787915 3.8493729714540166 0 0 1
4116 212 44 -0.75 65.51868748561122 54.543365341022984 0.08943025590193088 0 0 1
4117 212 44 -0.75 62.088495121929256 56.760891796894704 2.973239674994474 0 0 1
4118 212 44 -0.75 62.6514386371068 56.44211848481037 7.931210850205389 0 0 1
4119 212 44 -0.75 62.789032564412544 58.448587911898926 3.353531487326478 0 0 1
4120 212 44 -0.75 58.36408093099122 58.58000594201605 5.677866304697275 0 0 1
4121 213 44 -0.75 90.76717615614075 45.10526217241127 9.199981171686773 0 0 0
4122 213 44 -0.75 90.35356790651863 47.43140411286803 4.79339611195031 0 0 0
4123 213 44 -0.75 92.37324511939504 49.04431467264793 9.073515675927272 0 0 0
4124 213 44 -0.75 93.5412695089164 47.35151376790766 13.63094303381174 0 0 0
4125 213 44 -0.75 97.96568229295524 45.821128610744566 11.87524010131756 0 0 0
4126 213 44 -0.75 93.9686481956268 44.33916995162343 9.262288330340974 0 0 0
4127 213 44 -0.75 91.15758552824396 40.24097990366713 8.712047464102966 0 0 0
4128 213 44 -0.75 93.04725553598287 43.25610730281742 5.199476606633289 0 0 0
4129 213 44 -0.75 88.57439814671473 41.84541241738982 3.466419563285384 0 0 0
4130 213 44 -0.75 91.92281530581523 45.53317594735169 3.9005885116505397 0 0 0
4131 214 44 -0.75 89.48796257674482 51.413049481619915 15.7360944081616 0 0 0
4132 214 44 -0.75 92.76403279878232 50.048560194219036 19.25824330973396 0 0 0
4133 214 44 -0.75 95.86003437912521 51.188912492971404 15.501333562449023 0 0 0
4134 214 44 -0.75 96.30291929709823 51.435901919529705 20.475552010868878 0 0 0
4135 214 44 -0.75 96.59790461992272 53.963817128935986 16.171759688582576 0 0 0
4136 214 44 -0.75 96.73493181314653 58.89143094450978 17.008327458033122 0 0 0
4137 214 44 -0.75 95.5136034382563 56.37572315870394 21.153152102951633 0 0 0
4138 214 44 -0.75 93.9563846199956 56.27232962444918 16.402954282952017 0 0 0
4139 214 44 -0.75 90.75025426416089 56.791465808000396 20.204431070244425 0 0 0
4140 214 44 -0.75 91.52855122768442 57.761050531551476 15.361481627969972 0 0 0
4141 215 44 -0.75 99.37877532776052 3.1865250494800694 15.42446969639818 0 0 0
4142 215 44 -0.75 96.94672026663476 106.35533831239937 17.711169891163525 0 -1 0
4143 215 44 -0.75 93.79273253768626 104.27526802672926 14.436163171733071 0 -1 0
4144 215 44 -0.75 89.40173438605798 102.24526290315644 15.70036823052105 0 -1 0
4145 215 44 -0.75 92.88966921918046 105.77360721004872 16.320930114551754 0 -1 0
4146 215 44 -0.75 92.55810196204486 102.97244454562343 20.44931368217545 0 -1 0
4147 215 44 -0.75 88.94356357636839 105.82421898851408 22.399312345084518 0 -1 0
4148 215 44 -0.75 84.5147614285766 103.58217583306775 22.99844006505002 0 -1 0
4149 215 44 -0.75 86.07679927032393 106.43632894734422 26.794997424186754 0 -1 0
4150 215 44 -0.75 83.69108471147725 102.33594667818191 25.215367312278808 0 -1 0
4151 216 44 -0.75 36.91009155739677 32.139029557741495 38.09576178215031 0 0 0
4152 216 44 -0.75 39.81195962004116 34.50600072922811 41.40885840319169 0 0 0
4153 216 44 -0.75 36.29081857715326 37.921355611541856 40.44091378496913 0 0 0
4154 216 44 -0.75 31.56260879514847 36.31278563746379 40.20314310585013 0 0 0
4155 216 44 -0.75 27.875521074975488 39.55843151155965 39.269779830531164 0 0 0
4156 216 44 -0.75 31.689001477996083 37.337013999658744 41.61981630973695 0 0 0
4157 216 44 -0.75 36.60954621687228 37.699943382253146 42.430076598759804 0 0 0
4158 216 44 -0.75 33.775558830489246 33.64674145549682 43.16497090052075 0 0 0
4159 216 44 -0.75 30.756224896760255 37.41572318502159 41.869440384036814 0 0 0
4160 216 44 -0.75 33.933312972901476 33.597526854002396 42.44170617388698 0 0 0
4161 217 44 -0.75 61.332004786688955 51.63388579482571 89.67224980436778 0 0 0
4162 217 44 -0.75 64.50268035351222 48.932331393991326 92.43782755038801 0 0 0
4163 217 44 -0.75 59.81998431147917 49.74418016054511 90.88436066687453 0 0 0
4164 217 44 -0.75 63.054466016762866 50.97922130540885 87.27703458393184 0 0 0
4165 217 44 -0.75 61.35011137829804 48.5845839341813 91.3218939296525 0 0 0
4166 217 44 -0.75 63.85628415608046 45.756697908423284 88.04742318871973 0 0 0
4167 217 44 -0.75 64.30193240254333 45.02709243756888 92.97378832919846 0 0 0
4168 217 44 -0.75 65.60320446239189 47.00652486452766 97.37703012285021 0 0 0
4169 217 44 -0.75 67.03918466783227 47.713687264526186 102.11389429544496 0 0 0
4170 217 44 -0.75 66.18965280450283 46.01942973126952 97.48703931347384 0 0 0
4171 218 44 -0.75 71.69134099920508 59.27837650643458 66.00612271312524 0 0 0
4172 218 44 -0.75 68.06851781458766 60.99617828645129 63.01876447923865 0 0 0
4173 218 44 -0.75 71.14671535832194 63.87882976152826 65.70484347193131 0 0 0
4174 218 44 -0.75 68.54691125517944 59.62141200950756 66.04456793390374 0 0 0
4175 218 44 -0.75 72.67486889784159 58.06679269205279 68.3989520313236 0 0 0
4176 218 44 -0.75 72.25584270124763 57.392238730502626 63.462415391175476 0 0 0
4177 218 44 -0.75 74.9901271740805 58.13520950485194 67.5820856267754 0 0 0
4178 218 44 -0.75 74.82047133092225 54.430594610756636 70.9357471155559 0 0 0
4179 218 44 -0.75 70.80871485777989 57.23582515874893 71.95382941714614 0 0 0
4180 218 44 -0.75 73.12547057675712 59.01401350284843 76.01223909970592 0 0 0
4181 219 44 -0.75 70.15908405913513 27.216308127912118 42.04898928562784 0 0 0
4182 219 44 -0.75 74.9778834823996 26.05284596558196 42.70131429294549 0 0 0
4183 219 44 -0.75 78.73729157225956 22.880947130252924 41.80359017478124 0 0 0
4184 219 44 -0.75 74.89645330450429 22.33107890048366 44.9572557136165 0 0 0
4185 219 44 -0.75 75.12787552551488 19.693237518225946 49.19850984390287 0 0 0
4186 219 44 -0.75 76.09896833807214 15.810778949837461 46.20126207067049 0 0 0
4187 219 44 -0.75 74.93703959219553 17.64948939517127 41.699144181529206 0 0 0
4188 219 44 -0.75 79.12108344511593 20.370654075876544 41.40074877720607 0 0 0
4189 219 44 -0.75 81.16348714054789 23.949163594062888 38.568283989581055 0 0 0
4190 219 44 -0.75 81.58326998877591 28.64449362494898 36.90165317821557 0 0 0
4191 220 44 -0.75 80.38463680200721 53.11677542850254 31.822330244650484 0 0 0
4192 220 44 -0.75 76.21232953002786 50.97515657027263 33.55591632392728 0 0 0
4193 220 44 -0.75 80.3351391252019 50.267692761984534 30.816950095237452 0 0 0
4194 220 44 -0.75 79.99246497411735 51.278328104390894 35.7017418646845 0 0 0
4195 220 44 -0.75 75.78619898632631 53.5678454586382 37.13890459887735 0 0 0
4196 220 44 -0.75 76.80567707422367 58.428242144625194 36.55820804891012 0 0 0
4197 220 44 -0.75 76.60825502826475 63.40678521880572 36.97669746848784 0 0 0
4198 220 44 -0.75 77.68763178489603 60.38961129388101 40.81487507302864 0 0 0
4199 220 44 -0.75 82.38450576654098 60.46774889011716 39.102196084834674 0 0 0
4200 220 44 -0.75 84.95105888568318 57.20248360149787 36.3181616594801 0 0 0
4201 221 44 -0.75 97.00440192284218 94.6426110562649 11.437617305403606 0 0 0
4202 221 44 -0.75 93.86638900195658 91.27430885162735 9.486357413285457 0 0 0
4203 221 44 -0.75 92.50841833095961 90.49196480246498 4.738320614201833 0 0 0
4204 221 44 -0.75 97.29031639627921 91.60888388071534 5.6795658880455315 0 0 0
4205 221 44 -0.75 96.57075107566578 89.52745433410449 1.1907044742941695 0 0 0
4206 221 44 -0.75 93.6948888360828 92.91946359437691 105.79635817925897 0 0 -1
4207 221 44 -0.75 93.52437067868982 97.32185327970842 1.2694597757971167 0 0 0
4208 221 44 -0.75 88.9798242505348 95.37886041361038 0.5132346210742549 0 0 0
4209 221 44 -0.75 84.14114403709729 95.0601492728649 106.1855768643243 0 0 -1
4210 221 44 -0.75 88.98870726427663 96.21415911174118 106.59714951924134 0 0 -1
4211 222 44 -0.75 49.78450223359723 24.128445807608664 22.19359143559415 0 0 0
4212 222 44 -0.75 51.48362635053462 21.2098789961529 25.880723790461637 0 0 0
4213 222 44 -0.75 49.900443151731686 16.738622087658488 24.29914463744111 0 0 0
4214 222 44 -0.75 49.04628608917978 18.017056156371606 29.056877505567098 0 0 0
4215 222 44 -0.75 52.64653062020166 16.235575825005334 26.079535209860712 0 0 0
4216 222 44 -0.75 50.95429699705215 19.816260198900515 29.131591038187764 0 0 0
4217 222 44 -0.75 51.109453177180534 17.6992287222889 24.604549588542795 0 0 0
4218 222 44 -0.75 46.88867128965121 18.361839425520802 22.007253434103163 0 0 0
4219 222 44 -0.75 51.6330411770111 19.020230558466235 20.57286314970651 0 0 0
4220 222 44 -0.75 53.096045547604675 19.970145505480488 15.887003590878162 0 0 0
4221 223 44 -0.75 38.35638774632317 46.07569282419131 104.51109800227752 0 0 0
4222 223 44 -0.75 41.25109542939929 42.009303657620876 104.2192991408358 0 0 0
4223 223 44 -0.75 41.2907463647266 47.003629072170575 104.4541213223064 0 0 0
4224 223 44 -0.75 38.29801856839991 50.692965064307266 102.89451230905392 0 0 0
4225 223 44 -0.75 40.243475209081105 50.762340671570705 0.6087928040387283 0 0 1
4226 223 44 -0.75 42.536096326487915 50.8181907344345 5.0518513432095205 0 0 1
4227 223 44 -0.75 39.52395274359242 46.8933575832014 4.328888155347812 0 0 1
4228 223 44 -0.75 37.37054774978638 43.7081655374705 1.1324215804461062 0 0 1
4229 223 44 -0.75 42.31079866188374 43.332356843608295 0.4596000951033403 0 0 1
4230 223 44 -0.75 43.77362711295555 47.32160154343567 3.095137924016825 0 0 1
4231 224 44 -0.75 72.42068835480649 83.46563213225078 83.49433218066888 0 0 0
4232 224 44 -0.75 71.15467103465348 81.69907785332316 87.99727412174197 0 0 0
4233 224 44 -0.75 67.0621612796827 80.65129866004726 85.32266710993497 0 0 0
4234 224 44 -0.75 64.31003435077452 84.81199109680658 84.98438348060564 0 0 0
4235 224 44 -0.75 69.2617207177196 84.27595151447525 84.54453840608019 0 0 0
4236 224 44 -0.75 65.05114286028783 82.97279559019407 86.9052202447692 0 0 0
4237 224 44 -0.75 62.83434241884639 81.64796006210493 82.62379447449852 0 0 0
4238 224 44 -0.75 66.85645749853718 80.27165293803705 79.99161496201008 0 0 0
4239 224 44 -0.75 65.68431559009305 83.49935663629489 83.6258978600137 0 0 0
4240 224 44 -0.75 64.20994090715286 79.13117803446586 85.56115882350879 0 0 0
4241 225 44 -0.75 99.80135681536076 66.86850651936932 83.32377160021198 0 0 0
4242 225 44 -0.75 98.33099759278734 62.28398657571043 81.97461607070949 0 0 0
4243 225 44 -0.75 96.51873223514797 64.27296761169731 77.76039624825304 0 0 0
4244 225 44 -0.75 99.75683495286029 64.62677592283904 81.55374707153727 0 0 0
4245 225 44 -0.75 98.5713997208522 68.28316675348246 84.75148836881269 0 0 0
4246 225 44 -0.75 96.86471358521287 72.63714414738297 86.52069816073106 0 0 0
4247 225 44 -0.75 98.29516648915227 77.4211590498776 86.77955314391774 0 0 0
4248 225 44 -0.75 102.48988479690688 79.92532856929996 87.84420019180932 0 0 0
4249 225 44 -0.75 102.30797590670204 76.15521938341786 84.5649951231697 0 0 0
4250 225 44 -0.75 99.17939845982967 73.0178527505718 82.24789914543683 0 0 0
4251 226 44 -0.75 27.70841773690796 106.24530305057388 46.279811087636325 0 0 0
4252 226 44 -0.75 30.714485942438454 102.26828724084315 45.896536782665926 0 0 0
4253 226 44 -0.75 27.26248622692803 105.0428466900657 43.57586493450519 0 0 0
4254 226 44 -0.75 27.61329782602945 1.404404935703539 39.7947882360041 0 1 0
4255 226 44 -0.75 30.75728302961027 4.24078698957166 42.45379065874834 0 1 0
4256 226 44 -0.75 33.08060423781996 4.203830680865991 38.02651013965652 0 1 0
4257 226 44 -0.75 29.97362232856944 8.0800798910782 38.59339238132507 0 1 0
4258 226 44 -0.75 29.897686717630393 3.6954121079041755 40.9952504566882 0 1 0
4259 226 44 -0.75 28.165734041539103 2.284170829358189 36.522137672339014 0 1 0
4260 226 44 -0.75 29.323857549579103 4.769272619407815 32.34086764599327 0 1 0
4261 227 44 -0.75 22.64783793315598 23.805038818368832 65.91002850937136 0 0 0
4262 227 44 -0.75 18.511907128030288 24.29055075740311 68.67740172819595 0 0 0
4263 227 44 -0.75 14.744101407009154 25.753371128882826 65.73396893476846 0 0 0
4264 227 44 -0.75 12.338420978230769 25.67073529245175 70.11641950415654 0 0 0
4265 227 44 -0.75 14.603531742174727 26.959594830081123 74.38351621261383 0 0 0
4266 227 44 -0.75 10.500329291977014 29.816359176358645 74.43477167602076 0 0 0
4267 227 44 -0.75 8.387834083181675 26.88668997818029 70.9772577740875 0 0 0
4268 227 44 -0.75 3.6989455460472014 28.419505512607564 71.7926109636608 0 0 0
4269 227 44 -0.75 2.382706101139944 24.024884006477613 73.78128276703369 0 0 0
4270 227 44 -0.75 104.94632145342818 21.565591874456306 74.25452108240056 -1 0 0
4271 228 44 -0.75 89.52080305301891 24.426674258819386 77.55952241079461 0 0 0
4272 228 44 -0.75 93.26693619657708 27.655383135742348 78.2956782766368 0 0 0
4273 228 44 -0.75 98.16951103830984 27.23394367313644 79.18289228721568 0 0 0
4274 228 44 -0.75 94.21556226639306 24.578646314340013 77.66115477850185 0 0 0
4275 228 44 -0.75 97.11928340411416 26.527459006758956 74.08756657555813 0 0 0
4276 228 44 -0.75 102.10385734902049 26.919456958943726 74.10654533326107 0 0 0
4277 228 44 -0.75 100.46643272592571 28.90560301717926 78.39304325569593 0 0 0
4278 228 44 -0.75 102.32872797780733 27.586730474476997 73.94417467920087 0 0 0
4279 228 44 -0.75 99.70691715751332 29.900485679663717 70.37029095514652 0 0 0
4280 228 44 -0.75 99.13994431423365 26.503098851559496 66.74588693031605 0 0 0
4281 229 44 -0.75 49.486088961346624 94.61495618768615 29.698379914179753 0 0 0
4282 229 44 -0.75 49.40718685408185 98.23907958138903 26.25461684383292 0 0 0
4283 229 44 -0.75 48.350895087977214 93.62785818613179 27.873531587969076 0 0 0
4284 229 44 -0.75 52.18555944745213 92.36300905268233 24.924717263569352 0 0 0
4285 229 44 -0.75 56.88335662945564 93.11110854102363 23.38489623750712 0 0 0
4286 229 44 -0.75 57.14878013859401 93.04660458547424 28.37742962252471 0 0 0
4287 229 44 -0.75 52.53151517862921 91.14036108390998 28.160404273255807 0 0 0
4288 229 44 -0.75 48.57116403337462 91.19966204456159 25.108830547725578 0 0 0
4289 229 44 -0.75 45.79946676275492 92.48536063919843 21.15096832629996 0 0 0
4290 229 44 -0.75 48.98347526911013 96.2933350227047 20.549785387405496 0 0 0
4291 230 44 -0.75 71.82950012202309 44.437018442058196 102.80144614283826 0 0 0
4292 230 44 -0.75 72.58405081604786 49.3786476218243 102.90610893389099 0 0 0
4293 230 44 -0.75 76.53478258048209 47.195931876119175 100.75495331447586 0 0 0
4294 230 44 -0.75 75.59685406439621 51.779833767102566 102.51794326128548 0 0 0
4295 230 44 -0.75 80.56436559293364 52.300355941873725 102.74791256232209 0 0 0
4296 230 44 -0.75 82.07818060976506 52.58865591909397 0.6133200150867566 0 0 1
4297 230 44 -0.75 82.37309911701688 55.688002191236066 4.525745830286226 0 0 1
4298 230 44 -0.75 83.78593934330218 59.91081240333536 6.799895431253589 0 0 1
4299 230 44 -0.75 82.36017253816736 58.70148118973657 2.1625786388410404 0 0 1
4300 230 44 -0.75 84.52517161071661 62.245260281181174 106.2690976638455 0 0 0
4301 231 44 -0.75 12.780298009156938 15.3779666725144 102.1165822577808 0 0 0
4302 231 44 -0.75 12.371345875250016 15.360752652225663 97.13336423829998 0 0 0
4303 231 44 -0.75 10.537744395589936 17.193928527820944 92.85815993640705 0 0 0
4304 231 44 -0.75 9.336482834763697 19.400392291374033 88.53514150912635 0 0 0
4305 231 44 -0.75 9.707920421233098 15.974200171856047 92.15774301626327 0 0 0
4306 231 44 -0.75 12.070475202944834 13.564571552118533 95.84719078230535 0 0 0
4307 231 44 -0.75 13.550595464740425 10.701814135038727 99.66999917164122 0 0 0
4308 231 44 -0.75 10.234547150474906 9.28786146239691 96.20523923522632 0 0 0
4309 231 44 -0.75 11.93362890811329 10.735404095237918 91.7311201591435 0 0 0
4310 231 44 -0.75 14.2095415537586 13.774420292114357 88.47772160001884 0 0 0
4311 232 44 -0.75 106.2982349854002 3.1949777533733266 15.128484071998093 0 0 0
4312 232 44 -0.75 106.17708857873846 105.38618458417847 16.830087492038306 0 -1 0
4313 232 44 -0.75 104.38732354633463 1.7186000676359559 13.452945221686363 0 0 0
4314 232 44 -0.75 102.67742240166586 0.9981245040923842 8.80997709366771 0 0 0
4315 232 44 -0.75 100.63946053530108 3.1268782760745393 12.84917488648681 0 0 0
4316 232 44 -0.75 102.61680302212179 1.5886996428063433 17.17631287619443 0 0 0
4317 232 44 -0.75 102.23829403077862 6.550397624385575 16.688169369564505 0 0 0
4318 232 44 -0.75 101.04845378854687 2.8507593213611506 19.83411225282867 0 0 0
4319 232 44 -0.75 105.3976150884965 5.106921436143862 18.836851755847256 0 0 0
4320 232 44 -0.75 1.750760465745401 8.696623007622488 20.097134091078516 1 0 0
4321 233 44 -0.75 49.07803173842137 84.52765377987151 87.45338847093912 0 0 0
4322 233 44 -0.75 53.51342988678985 83.9182911094533 85.22719881115039 0 0 0
4323 233 44 -0.75 51.18490655940944 88.33291309387188 84.92871623455083 0 0 0
4324 233 44 -0.75 48.495018809771665 92.07885653542395 86.86066127182329 0 0 0
4325 233 44 -0.75 48.420801267629 87.07942728877612 86.8465558047789 0 0 0
4326 233 44 -0.75 47.98465030282083 89.07887337514605 82.28454005693268 0 0 0
4327 233 44 -0.75 43.147774420031894 89.36372971305374 81.05024326877816 0 0 0
4328 233 44 -0.75 40.15150045766468 86.06663301051483 83.31993392535392 0 0 0
4329 233 44 -0.75 37.591574017531066 90.36159618865193 83.32817525724607 0 0 0
4330 233 44 -0.75 34.30384522285868 89.2889832510445 86.93931647004283 0 0 0
4331 234 44 -0.75 97.33876824599378 61.117657911413914 39.87735445128305 0 0 0
4332 234 44 -0.75 95.25092508827011 59.917468112405 44.25918687563492 0 0 0
4333 234 44 -0.75 92.20856560322191 56.744284409729474 46.641403060789344 0 0 0
4334 234 44 -0.75 94.62265988860753 58.31379344817975 50.72904176296098 0 0 0
4335 234 44 -0.75 95.03095342005615 53.83622656415048 52.91643546122877 0 0 0
4336 234 44 -0.75 93.88181262741516 49.01454919351363 53.57286731007293 0 0 0
4337 234 44 -0.75 94.97185322776706 45.148149889790346 50.59582718374735 0 0 0
4338 234 44 -0.75 98.80286940031571 43.225302172094835 48.021730887913854 0 0 0
4339 234 44 -0.75 96.83330483034216 38.65865633288814 48.53802652411573 0 0 0
4340 234 44 -0.75 100.68919003766246 41.32372104171816 46.79745783379717 0 0 0
4341 235 44 -0.75 82.99019478325359 101.95268263007554 74.0124265861331 0 0 0
4342 235 44 -0.75 86.98703528161967 103.3338863353847 71.34455433374525 0 0 0
4343 235 44 -0.75 90.17482050049809 100.9123091872692 74.34021611606065 0 0 0
4344 235 44 -0.75 90.21980002960089 96.54758197219056 76.77889058796409 0 0 0
4345 235 44 -0.75 85.42006511312434 95.1725771967041 76.51073652973395 0 0 0
4346 235 44 -0.75 88.04348566461468 92.09414603819442 79.45028176876922 0 0 0
4347 235 44 -0.75 91.71666866334343 93.53423022006518 82.52174464612517 0 0 0
4348 235 44 -0.75 95.59811120086191 91.76953507205128 79.91018287918985 0 0 0
4349 235 44 -0.75 95.56020684222544 95.36425149897555 76.43504589345861 0 0 0
4350 235 44 -0.75 100.21070031409033 94.28837675229423 77.92346921953067 0 0 0
4351 236 44 -0.75 32.16863633065813 95.67900931645875 74.3550923641661 0 0 0
4352 236 44 -0.75 36.37919240556661 93.95602107010048 76.42934621626871 0 0 0
4353 236 44 -0.75 35.030666538113245 91.66993210246757 80.6667127589313 0 0 0
4354 236 44 -0.75 39.03121715482416 93.94205340406636 82.62453286148283 0 0 0
4355 236 44 -0.75 37.81208003623399 91.56861642995703 86.85306707749746 0 0 0
4356 236 44 -0.75 33.21241412966111 91.2295668442804 84.92223333883337 0 0 0
4357 236 44 -0.75 30.51294745893733 87.38447065820861 83.21105976099048 0 0 0
4358 236 44 -0.75 32.3956395603023 90.75464152558693 80.0334161723965 0 0 0
4359 236 44 -0.75 36.3406398087232 92.16454976303336 77.30410640581819 0 0 0
4360 236 44 -0.75 34.235535475006586 96.16157412878786 79.44707909900221 0 0 0
4361 237 44 -0.75 15.41377074645992 89.66068845096243 43.699578898339574 0 0 0
4362 237 44 -0.75 15.908140278132501 88.22332316604258 48.46293693693599 0 0 0
4363 237 44 -0.75 17.506082260412303 92.79958200249058 47.236382216143156 0 0 0
4364 237 44 -0.75 15.733656737795481 89.88913579287593 43.57744649277821 0 0 0
4365 237 44 -0.75 16.87859064258289 90.89332951523325 48.33987458374676 0 0 0
4366 237 44 -0.75 19.930176325090912 89.98302327847655 52.19463363946398 0 0 0
4367 237 44 -0.75 16.015161141112117 89.74604835192848 55.29568168704451 0 0 0
4368 237 44 -0.75 18.618411263793373 88.3591705897173 59.33296528761608 0 0 0
4369 237 44 -0.75 15.205301144838941 91.83367788871041 60.46366345473866 0 0 0
4370 237 44 -0.75 19.794924156797066 92.52810404644013 58.60540273041465 0 0 0
4371 238 44 -0.75 6.2349150946114165 31.124991557149794 20.544786453185083 0 0 0
4372 238 44 -0.75 4.635709330857304 26.411439217959792 20.07048141326661 0 0 0
4373 238 44 -0.75 5.658509100268498 28.53968740253226 15.663164735677354 0 0 0
4374 238 44 -0.75 1.9235368407437883 25.57475794112561 17.166220127026513 0 0 0
4375 238 44 -0.75 106.10600665107663 21.37482941285684 17.013186114655184 -1 0 0
4376 238 44 -0.75 106.69856556900729 26.32075744982621 17.445239099717362 -1 0 0
4377 238 44 -0.75 105.79251977936703 21.521259949133526 18.514773936887167 -1 0 0
4378 238 44 -0.75 102.6114841777384 18.138603952700713 16.66041396348169 -1 0 0
4379 238 44 -0.75 102.81321525108463 14.441076525357364 20.02011566126533 -1 0 0
4380 238 44 -0.75 99.77257738390377 15.452512134439651 16.181949514608032 -1 0 0
4381 239 44 -0.75 86.37985469119475 11.490032363502639 84.650121713065 0 0 0
4382 239 44 -0.75 84.78129802258094 6.756542765280303 84.84682657002405 0 0 0
4383 239 44 -0.75 84.25817420064077 1.814049204669371 84.30084225684446 0 0 0
4384 239 44 -0.75 85.17143049629323 1.7592043272944344 89.21642512949312 0 0 0
4385 239 44 -0.75 89.74694296091323 0.8870661632212347 87.39871758731972 0 0 0
4386 239 44 -0.75 93.71143712681301 104.73944124709816 87.61865416000366 0 -1 0
4387 239 44 -0.75 95.83662194864769 1.3613935433568103 90.47196803687986 0 0 0
4388 239 44 -0.75 100.53129027626647 0.4339452579672354 91.92108120415871 0 0 0
4389 239 44 -0.75 102.93442684713422 4.8135569913394995 91.71147279147927 0 0 0
4390 239 44 -0.75 99.499027197877 4.599491299127136 88.08487588400513 0 0 0
4391 240 44 -0.75 70.30487154915643 40.37214555992539 57.903440236814895 0 0 0
4392 240 44 -0.75 65.83838495975102 40.9093314251988 55.72125580537649 0 0 0
4393 240 44 -0.75 64.4556552349701 36.15922930217291 56.44554050701815 0 0 0
4394 240 44 -0.75 65.33040318065709 38.52445291506083 60.76300889631226 0 0 0
4395 240 44 -0.75 63.02422688964725 42.8473476886646 61.76007042457084 0 0 0
4396 240 44 -0.75 66.48993548021755 46.17134835760813 60.367273412041676 0 0 0
4397 240 44 -0.75 65.80162735587784 44.74890317405216 65.11099364259347 0 0 0
4398 240 44 -0.75 65.0992336186854 49.67530677325103 65.59801583485296 0 0 0
4399 240 44 -0.75 70.04979698928906 49.89218513580851 66.26501365305907 0 0 0
4400 240 44 -0.75 68.0316806359968 54.426886369250724 66.86808173212813 0 0 0
4401 241 44 -0.75 18.765590254953732 13.372568546524596 55.966808771653554 0 0 0
4402 241 44 -0.75 21.959177326276265 9.716350871307993 57.16391943041292 0 0 0
4403 241 44 -0.75 23.43774392386326 10.0084071340564 61.93136570235867 0 0 0
4404 241 44 -0.75 24.29997654744215 14.93332711690401 61.889916150074406 0 0 0
4405 241 44 -0.75 19.44631782283795 16.106385600315146 61.63314625392082 0 0 0
4406 241 44 -0.75 19.48602185627269 17.812843393027666 66.3327659610269 0 0 0
4407 241 44 -0.75 24.19971278276372 17.66819946068026 67.99414971631982 0 0 0
4408 241 44 -0.75 21.692530820289967 17.56785478829459 72.3189583310183 0 0 0
4409 241 44 -0.75 23.510841190369028 18.707919882936178 76.83492987411319 0 0 0
4410 241 44 -0.75 20.230832510974714 17.860321865587835 80.51230946617125 0 0 0
4411 242 44 -0.75 96.72661088919124 86.379999007704 16.033067503255907 0 0 0
4412 242 44 -0.75 93.13292384402375 89.85266064914299 15.871715262882049 0 0 0
4413 242 44 -0.75 88.76404293685563 90.56037306173022 18.19809071840333 0 0 0
4414 242 44 -0.75 86.48697402945415 86.38296634051824 19.7356960892701 0 0 0
4415 242 44 -0.75 82.93885279695819 88.47061449818762 22.573399542644143 0 0 0
4416 242 44 -0.75 81.09472908196913 90.07495141924394 26.9352008640652 0 0 0
4417 242 44 -0.75 85.53239143307222 90.17967011825836 29.236545438803837 0 0 0
4418 242 44 -0.75 84.25082139315853 89.51658857687235 24.449280969164754 0 0 0
4419 242 44 -0.75 81.31626410063441 85.57851338710007 23.51123123882335 0 0 0
4420 242 44 -0.75 76.52614692985532 84.87349837980773 24.7593223131043 0 0 0
4421 243 44 -0.75 30.0527797198291 80.48766162691018 97.10122071329889 0 0 0
4422 243 44 -0.75 29.874783224416785 79.28237976189229 92.25193077832078 0 0 0
4423 243 44 -0.75 25.472266800445734 79.87425323331084 89.95681968504095 0 0 0
4424 243 44 -0.75 28.447354161001556 80.20424292640838 85.95182755027834 0 0 0
4425 243 44 -0.75 28.27194523882388 77.34937348800459 90.05291913663537 0 0 0
4426 243 44 -0.75 26.300536570734472 75.21690046025431 94.12306737095061 0 0 0
4427 243 44 -0.75 21.846305021577514 73.56668635856674 95.68403332992803 0 0 0
4428 243 44 -0.75 21.716694915333303 77.91936784329339 93.22692830309721 0 0 0
4429 243 44 -0.75 23.4195989552142 79.99492199985744 89.00884902762988 0 0 0
4430 243 44 -0.75 23.33141975413564 75.13714211377788 87.82808698263607 0 0 0
4431 244 44 -0.75 101.4206813148441 64.25196762991624 67.37384566554778 0 0 0
4432 244 44 -0.75 98.44251939762864 66.79770909363693 70.48025066083426 0 0 0
4433 244 44 -0.75 96.00803573327732 65.95851017840782 66.19433950115247 0 0 0
4434 244 44 -0.75 96.92379223155622 69.99567541798213 63.39029120195488 0 0 0
4435 244 44 -0.75 99.06703360777082 68.34616893904482 67.5957215936301 0 0 0
4436 244 44 -0.75 96.14100424768928 64.29326061449515 67.70656516239653 0 0 0
4437 244 44 -0.75 93.41427901066494 65.79846899003591 71.61799932750483 0 0 0
4438 244 44 -0.75 96.3438329494105 64.97166311720926 67.65137535129537 0 0 0
4439 244 44 -0.75 92.81004373714117 61.5078271871723 66.93431576309231 0 0 0
4440 244 44 -0.75 96.404522164972 62.17355977476346 63.52308065631969 0 0 0
4441 245 44 -0.75 75.63069680916185 25.13428779454087 39.23782713648549 0 0 0
4442 245 44 -0.75 72.36450346113496 28.83634561551165 38.44615239046036 0 0 0
4443 245 44 -0.75 68.18186534795659 26.750174091674882 40.2219414509403 0 0 0
4444 245 44 -0.75 68.41057269777328 31.488379337824 38.64171868388978 0 0 0
4445 245 44 -0.75 67.45806433894276 29.96276315345689 43.30704001091058 0 0 0
4446 245 44 -0.75 68.2353611403419 30.779203521239438 38.4357737680955 0 0 0
4447 245 44 -0.75 69.43240038626062 25.935024287477084 38.75361743236442 0 0 0
4448 245 44 -0.75 73.74195105677966 26.842819299456636 36.38640784416697 0 0 0
4449 245 44 -0.75 69.76182450431696 27.768628240367008 33.50518060021138 0 0 0
4450 245 44 -0.75 73.456472055714 31.020831062427607 32.62611503090673 0 0 0
4451 246 44 -0.75 24.236464319806732 61.66369307748865 25.09750886504363 0 0 0
4452 246 44 -0.75 22.367709276230695 63.386800217206606 20.791854864527313 0 0 0
4453 246 44 -0.75 22.59884171257756 59.53566898556457 17.611388541243937 0 0 0
4454 246 44 -0.75 20.621590661301347 55.835466526400715 14.891281918071808 0 0 0
4455 246 44 -0.75 16.702837473333837 54.79857408518332 17.818435401772433 0 0 0
4456 246 44 -0.75 16.065680057771434 51.65692993914182 21.655635225528947 0 0 0
4457 246 44 -0.75 15.426863630527334 49.870396280322694 26.28167144006396 0 0 0
4458 246 44 -0.75 18.37230553749338 53.788784318990395 27.266865406303175 0 0 0
4459 246 44 -0.75 13.724165826715234 54.8741731550577 25.777997277949382 0 0 0
4460 246 44 -0.75 13.901904581523056 53.39316023117683 21.005680266859567 0 0 0
4461 247 44 -0.75 53.72253721930155 13.913290674661894 68.60045318229355 0 0 0
4462 247 44 -0.75 52.80704274888177 13.156069361727571 73.45725107368958 0 0 0
4463 247 44 -0.75 52.58116348518801 12.206123338053013 68.55351972803675 0 0 0
4464 247 44 -0.75 50.28787738470814 8.550192931568047 66.028641171693 0 0 0
4465 247 44 -0.75 46.561188296712636 5.260649974412439 66.56780309026958 0 0 0
4466 247 44 -0.75 51.234807330518706 5.213036868516429 64.79156602304218 0 0 0
4467 247 44 -0.75 53.39502968292336 1.1687996611364042 66.78595434997712 0 0 0
4468 247 44 -0.75 54.01737354268742 103.42681819849433 68.55975906058589 0 -1 0
4469 247 44 -0.75 54.043554005921024 105.89348043046239 72.90888449183379 0 -1 0
4470 247 44 -0.75 57.921437467642946 1.3420317708208156 70.79048495481378 0 0 0
4471 248 44 -0.75 23.600852909922516 67.50757752866305 31.678369286506857 0 0 0
4472 248 44 -0.75 25.824644273170207 63.03290292076929 31.857364052396143 0 0 0
4473 248 44 -0.75 29.233578017627558 65.4454585521207 29.1080466732028 0 0 0
4474 248 44 -0.75 32.20463511997489 61.45672508789053 29.620711325701787 0 0 0
4475 248 44 -0.75 29.990584565136338 62.29542838414838 25.21678615360073 0 0 0
4476 248 44 -0.75 33.455823251417215 65.8965651156547 25.371495843337406 0 0 0
4477 248 44 -0.75 35.12789805702638 70.59648153803823 25.710540777021038 0 0 0
4478 248 44 -0.75 34.30272783815688 72.97156681355443 30.03235336480374 0 0 0
4479 248 44 -0.75 39.08292468759003 73.12861096793377 28.574596452885743 0 0 0
4480 248 44 -0.75 34.26935646039634 74.39905889141599 29.0388409960643 0 0 0
4481 249 44 -0.75 66.0483481884697 68.75164639143122 9.410330488931455 0 0 0
4482 249 44 -0.75 69.79103750397549 69.48723260381695 12.643160458439104 0 0 0
4483 249 44 -0.75 68.02985992527368 66.52075697941963 16.262314490272313 0 0 0
4484 249 44 -0.75 69.72833038220124 68.15916624895638 11.854274883775979 0 0 0
4485 249 44 -0.75 65.81641606106429 66.0696455394355 14.163133811594436 0 0 0
4486 249 44 -0.75 69.349207515464 63.73518972041644 16.822024664707513 0 0 0
4487 249 44 -0.75 69.1885777518124 61.11054245110975 21.07472084369211 0 0 0
4488 249 44 -0.75 73.76584969651594 59.91000377352928 22.68943085724351 0 0 0
4489 249 44 -0.75 68.80154244077865 60.308050835561154 23.133516442510345 0 0 0
4490 249 44 -0.75 63.90362287301509 61.195916433853895 22.662264294412232 0 0 0
4491 250 44 -0.75 81.73995838767456 90.38751313523099 6.977619395437263 0 0 0
4492 250 44 -0.75 81.43125823936874 85.4920715658771 6.0084155678148985 0 0 0
4493 250 44 -0.75 77.31198440604472 82.87460195933787 7.094894258326242 0 0 0
4494 250 44 -0.75 79.93315828019831 86.80303469928714 8.737107316717037 0 0 0
4495 250 44 -0.75 82.78373414400664 86.90106461715123 12.843761353749734 0 0 0
4496 250 44 -0.75 82.38404062180925 83.52167336115677 16.50708768745543 0 0 0
4497 250 44 -0.75 79.0574097866778 84.24841557064236 12.845752815075599 0 0 0
4498 250 44 -0.75 77.42999978939719 81.23811848436227 16.491249784363156 0 0 0
4499 250 44 -0.75 76.86568463505745 76.7680737183453 14.323244204022826 0 0 0
4500 250 44 -0.75 75.47316719599148 73.93389112708813 18.199879887358563 0 0 0
4501 251 44 -0.75 78.42658514310556 70.35704157989386 48.46794864224764 0 0 0
4502 251 44 -0.75 73.83553683626542 71.83269351861809 47.147067572658194 0 0 0
4503 251 44 -0.75 69.64348413782332 71.75769214299231 44.4229036702583 0 0 0
4504 251 44 -0.75 74.15809999039223 70.46974386156671 42.70260342666523 0 0 0
4505 251 44 -0.75 75.21539849916873 75.35340610277771 42.88138535279001 0 0 0
4506 251 44 -0.75 76.16496210266483 73.28697943512496 38.428497549338296 0 0 0
4507 251 44 -0.75 73.56841998307033 73.50685112195593 34.16122377531093 0 0 0
4508 251 44 -0.75 70.136279843665 76.0893845941837 36.720703200566376 0 0 0
4509 251 44 -0.75 67.0710180858348 72.13928328787738 36.69120699910247 0 0 0
4510 251 44 -0.75 64.68058056858389 74.57884148087024 33.039582114325725 0 0 0
4511 252 44 -0.75 96.47502087855025 88.77483746894421 13.29800791640692 0 0 0
4512 252 44 -0.75 97.72055643576272 92.75961782718154 10.546614329090598 0 0 0
4513 252 44 -0.75 101.33448980338514 94.71267229416543 13.39706409419427 0 0 0
4514 252 44 -0.75 103.73126630840804 96.30753430164845 9.30904775835883 0 0 0
4515 252 44 -0.75 99.430105547036 98.80840616677632 8.813410775229698 0 0 0
4516 252 44 -0.75 102.29028827697957 100.8602937793942 5.262479633047705 0 0 0
4517 252 44 -0.75 104.61985539811026 104.93219181564875 6.992440155861198 0 0 0
4518 252 44 -0.75 104.56582704297858 0.8596570825198455 11.12187678767873 0 1 0
4519 252 44 -0.75 102.1730022727402 5.246413117773287 10.94648834421351 0 1 0
4520 252 44 -0.75 103.91422401543598 4.906183029375441 15.62114237737065 0 1 0
4521 253 44 -0.75 40.45746907601469 1.1843261218511019 15.372376284172743 0 0 0
4522 253 44 -0.75 44.571817655230056 0.4847422298142422 18.126049857185905 0 0 0
4523 253 44 -0.75 42.02607784318434 4.782045670341881 17.89715697963232 0 0 0
4524 253 44 -0.75 44.74794887730094 3.0399745535413496 21.712469063544507 0 0 0
4525 253 44 -0.75 41.65092015572964 106.11276169679638 20.80241943184177 0 -1 0
4526 253 44 -0.75 37.100204306886816 0.5610884697710299 22.382505576249503 0 0 0
4527 253 44 -0.75 36.784601229221096 1.2588134121365724 27.323515048226756 0 0 0
4528 253 44 -0.75 40.285659819509995 106.5455034924641 24.134759907557218 0 -1 0
4529 253 44 -0.75 43.839071183049775 105.26505262136617 27.41099452189284 0 -1 0
4530 253 44 -0.75 41.81290761027931 2.816259094529186 26.33407822820046 0 0 0
4531 254 44 -0.75 78.9875091183198 36.464344181682044 29.759672591242524 0 0 0
4532 254 44 -0.75 82.92528444953788 37.84024372563905 27.002713054762296 0 0 0
4533 254 44 -0.75 85.55290219547794 33.93928963861795 28.699233668304693 0 0 0
4534 254 44 -0.75 89.76629994666256 32.08463004937518 30.65051970534341 0 0 0
4535 254 44 -0.75 91.9804414770148 36.54979032215945 31.050420970555916 0 0 0
4536 254 44 -0.75 94.62985133010459 38.79761626108548 34.64596070453773 0 0 0
4537 254 44 -0.75 94.71516750840803 42.097532373908166 30.89052800003444 0 0 0
4538 254 44 -0.75 93.37174403171157 45.325246534476015 34.46503141448666 0 0 0
4539 254 44 -0.75 94.78741650017723 46.57319729891893 29.834859673443493 0 0 0
4540 254 44 -0.75 90.94122793007838 47.816849849142564 32.777674961150694 0 0 0
4541 255 44 -0.75 45.277666429174154 45.45209960632951 98.80975856636036 0 0 0
4542 255 44 -0.75 49.932372331298 44.08850226353329 97.59554472545236 0 0 0
4543 255 44 -0.75 51.180285793720444 39.39832314838705 98.79759790986262 0 0 0
4544 255 44 -0.75 50.931530975133256 34.85958177460659 100.88037196917945 0 0 0
4545 255 44 -0.75 52.4213855652197 30.858560699645427 98.27803385546036 0 0 0
4546 255 44 -0.75 48.416557187440596 33.84881325066441 98.1375370737904 0 0 0
4547 255 44 -0.75 44.59734281758571 32.31677595603625 95.29738508402605 0 0 0
4548 255 44 -0.75 39.795289298481705 32.75428051398867 96.61983423670894 0 0 0
4549 255 44 -0.75 36.58454089070271 29.064764921284677 97.6583761728573 0 0 0
4550 255 44 -0.75 40.79878984966112 29.75882246597429 95.05868583811022 0 0 0
4551 256 44 -0.75 40.70107120277053 50.962973991344484 58.32906456695413 0 0 0
4552 256 44 -0.75 43.26775894185889 49.92627078399095 54.1652489478523 0 0 0
4553 256 44 -0.75 41.64455479235618 47.06721489313289 50.3981535545835 0 0 0
4554 256 44 -0.75 36.97331933904289 47.1583601755388 48.61735264566525 0 0 0
4555 256 44 -0.75 40.576866554957064 47.03788886567838 52.081444752722696 0 0 0
4556 256 44 -0.75 39.72627542263004 42.40026975380269 53.74547110430849 0 0 0
4557 256 44 -0.75 35.71639073849952 39.64709630854735 52.58751566461478 0 0 0
4558 256 44 -0.75 31.786582598956667 36.561802047500095 52.393692783788936 0 0 0
4559 256 44 -0.75 31.528484966506387 39.42564776274985 48.30324374592412 0 0 0
4560 256 44 -0.75 34.805811181554006 39.67420870218426 44.53530659948057 0 0 0
4561 257 44 -0.75 94.26934366770715 89.70089070481873 1.2117643665366629 0 0 0
4562 257 44 -0.75 91.32787339841455 87.12697463752207 104.98483146160376 0 0 -1
4563 257 44 -0.75 95.8857126073338 87.10832439811765 102.92916759943941 0 0 -1
4564 257 44 -0.75 97.73132433579441 88.60491929885248 0.43728382378160546 0 0 0
4565 257 44 -0.75 95.42392446706076 93.01971723832051 0.006627348807949018 0 0 0
4566 257 44 -0.75 99.2781840187194 92.82423512628591 3.185694830369578 0 0 0
4567 257 44 -0.75 101.19350266013872 91.27407613964535 105.7261910802096 0 0 -1
4568 257 44 -0.75 105.04178013476138 93.45173858451098 103.39197884595718 0 0 -1
4569 257 44 -0.75 103.0102073476453 97.44244389126868 105.61616030556549 0 0 -1
4570 257 44 -0.75 104.62734303059702 96.69423960352331 3.396697516571817 0 0 0
4571 258 44 -0.75 2.5687375956979923 92.15794411364523 41.256871489170656 0 0 0
4572 258 44 -0.75 0.9350567159221297 89.21183271258919 44.9516670715571 0 0 0
4573 258 44 -0.75 3.2897072838749395 88.93764911219697 40.54934449635711 0 0 0
4574 258 44 -0.75 4.836913703145898 84.43134992862763 42.065728341011564 0 0 0
4575 258 44 -0.75 1.8117459630963424 80.55413634371833 41.16263645113646 0 0 0
4576 258 44 -0.75 0.012341558833326438 82.49724643054739 36.92159094555861 0 0 0
4577 258 44 -0.75 0.45358000726557723 78.26426160782502 39.54592859956336 0 0 0
4578 258 44 -0.75 104.49749208140473 74.21305147821039 38.85261178626701 -1 0 0
4579 258 44 -0.75 106.51390800517964 76.68551538083948 42.70241555692118 -1 0 0
4580 258 44 -0.75 105.99780739860172 81.14633561019282 44.90121592195705 -1 0 0
4581 259 44 -0.75 32.76466117852403 64.41559421924144 9.822245225313491 0 0 0
4582 259 44 -0.75 35.865845209078614 67.2287830318905 12.55512398461098 0 0 0
4583 259 44 -0.75 35.24182890189713 64.12051271255632 16.4215511816907 0 0 0
4584 259 44 -0.75 38.56595894521165 61.01552407570302 14.345688705478544 0 0 0
4585 259 44 -0.75 42.151922539604975 59.37733012363659 11.270434947640235 0 0 0
4586 259 44 -0.75 42.82016198298173 62.42670495923232 15.176170366015503 0 0 0
4587 259 44 -0.75 39.7724240368826 64.29786083356714 18.67046129635455 0 0 0
4588 259 44 -0.75 35.287084653038505 63.33023734209097 20.65677330368888 0 0 0
4589 259 44 -0.75 36.76058709091171 59.3370456677744 18.03318590896566 0 0 0
4590 259 44 -0.75 40.3694260802806 60.591200814110486 21.25861239514228 0 0 0
4591 260 44 -0.75 49.22956974588011 14.575866253896606 29.09331919595459 0 0 0
4592 260 44 -0.75 51.197849759492534 11.175694559596469 26.00063326988741 0 0 0
4593 260 44 -0.75 53.6125581373562 10.272124739403564 21.716622878920603 0 0 0
4594 260 44 -0.75 57.559804447386604 9.97817113633861 24.771592248193638 0 0 0
4595 260 44 -0.75 55.41348827147104 6.303721630892731 22.14637840834521 0 0 0
4596 260 44 -0.75 58.6702979019455 4.162345759093043 19.014653579034224 0 0 0
4597 260 44 -0.75 59.46611817161165 3.969860713941598 23.947160001308966 0 0 0
4598 260 44 -0.75 56.81452525836605 8.204273450681415 23.75017320641825 0 0 0
4599 260 44 -0.75 57.308138703528236 12.544368140849933 21.317083843668463 0 0 0
4600 260 44 -0.75 57.103948486600345 9.735979869619399 25.448822179203 0 0 0
4601 261 44 -0.75 58.8311980234665 106.58847081287828 94.37429222205665 0 0 0
4602 261 44 -0.75 54.25566795995663 105.72228631396753 96.19480013243884 0 0 0
4603 261 44 -0.75 58.488829273154124 106.51683476039233 93.65530450087496 0 0 0
4604 261 44 -0.75 57.21995953329093 101.68274961790314 93.50836771710426 0 0 0
4605 261 44 -0.75 58.96381721206131 100.6289102700722 98.07437067649411 0 0 0
4606 261 44 -0.75 62.895698954868664 101.29719892788908 95.05879507133818 0 0 0
4607 261 44 -0.75 58.83121999425932 98.57954551587987 96.10491681901321 0 0 0
4608 261 44 -0.75 54.93845024272217 96.20700271314226 94.05128970809571 0 0 0
4609 261 44 -0.75 50.50096738881513 96.92423740233984 91.86169606499827 0 0 0
4610 261 44 -0.75 54.80515637376959 96.96692720467819 89.3176570003271 0 0 0
4611 262 44 -0.75 91.87044456786755 61.14684983976061 87.42871935029095 0 0 0
4612 262 44 -0.75 91.71244004835953 58.478514678566995 83.20319902264455 0 0 0
4613 262 44 -0.75 95.66304498609465 55.65646283440249 82.00789821749524 0 0 0
4614 262 44 -0.75 96.54851678147637 56.30749421556946 86.88561262491181 0 0 0
4615 262 44 -0.75 99.0877406603843 60.42533191226645 85.62238073945095 0 0 0
4616 262 44 -0.75 94.1050222347889 60.817008564095225 85.4841545058904 0 0 0
4617 262 44 -0.75 97.96988095885659 63.7016694923565 84.16445818780782 0 0 0
4618 262 44 -0.75 102.35558299450202 64.97682570394834 86.1990574826505 0 0 0
4619 262 44 -0.75 97.99668294072032 65.79795742208435 88.50681245721191 0 0 0
4620 262 44 -0.75 102.11995012637267 68.62261521671968 88.36547577079105 0 0 0
4621 263 44 -0.75 75.25582529378431 104.17326392518258 59.098473411430504 0 0 0
4622 263 44 -0.75 74.31553988853514 1.6070051778831953 61.424587694276305 0 1 0
4623 263 44 -0.75 78.63442411961807 0.31004916569231966 63.58448215950952 0 1 0
4624 263 44 -0.75 76.08940113264653 104.05260953668889 66.51858696219797 0 0 0
4625 263 44 -0.75 74.22979968659203 1.5675573759176018 67.97728705754477 0 1 0
4626 263 44 -0.75 78.495616594387 2.9459406062726288 65.76304547645057 0 1 0
4627 263 44 -0.75 77.38086170576616 1.3866997630991165 70.38106339881462 0 1 0
4628 263 44 -0.75 72.76080082563567 3.1956505993072852 70.99971866313355 0 1 0
4629 263 44 -0.75 68.40531895090919 2.001551246421343 68.85404758527316 0 1 0
4630 263 44 -0.75 70.88145778007613 3.402927299020945 72.96560223745671 0 1 0
4631 264 44 -0.75 3.7347478242515297 85.9238765522624 56.179624153088994 0 0 0
4632 264 44 -0.75 105.83637031575692 86.79595831426546 57.319575203937895 -1 0 0
4633 264 44 -0.75 101.74405785591053 85.47066705940333 54.7707358953953 -1 0 0
4634 264 44 -0.75 100.8002485258898 82.66561063052022 58.800733709209524 -1 0 0
4635 264 44 -0.75 102.39507486638499 79.8796739740945 62.634150708447436 -1 0 0
4636 264 44 -0.75 105.06773084007445 80.6855442549384 66.78234105325498 -1 0 0
4637 264 44 -0.75 2.5514670640996737 78.43413518757734 67.67180836202223 0 0 0
4638 264 44 -0.75 105.80719980692085 76.54197402668498 70.53592347073125 -1 0 0
4639 264 44 -0.75 103.04580864541663 77.72458339821961 74.5329416002279 -1 0 0
4640 264 44 -0.75 100.28003953882855 73.8816281270116 72.92601408707195 -1 0 0
4641 265 44 -0.75 56.34672894495056 29.237794259963426 53.13281488024181 0 0 0
4642 265 44 -0.75 51.71203032406668 31.112468908283248 53.060956293253255 0 0 0
4643 265 44 -0.75 51.90648648300055 26.552368682532414 51.019468420803385 0 0 0
4644 265 44 -0.75 48.782055833494496 29.030014920409677 48.002980025937624 0 0 0
4645 265 44 -0.75 50.355589200270096 24.288273591453244 47.80327546186782 0 0 0
4646 265 44 -0.75 54.95446161734717 25.455627104556132 49.380506664606976 0 0 0
4647 265 44 -0.75 55.43554855793152 22.34107312132685 45.49874046335917 0 0 0
4648 265 44 -0.75 52.93608768793712 21.108525990499256 49.65006831474064 0 0 0
4649 265 44 -0.75 55.550132858287206 17.11699508950258 48.1552609981416 0 0 0
4650 265 44 -0.75 52.774967851631175 20.88422193877137 46.39274545154912 0 0 0
4651 266 44 -0.75 105.02127636692818 87.07643833679774 89.92261342744052 0 0 0
4652 266 44 -0.75 0.809158861108429 89.4248781590932 86.41442511105247 1 0 0
4653 266 44 -0.75 2.452558295738527 92.41499982883158 82.75950914780265 1 0 0
4654 266 44 -0.75 105.14975813942445 89.69998159602495 82.95724122110173 0 0 0
4655 266 44 -0.75 102.77400814979323 92.03408051445851 86.68655673815503 0 0 0
4656 266 44 -0.75 0.21714875003090128 94.32909174365946 85.71368660738622 1 0 0
4657 266 44 -0.75 0.053606110796863504 97.67344501287744 82.00039224579524 1 0 0
4658 266 44 -0.75 105.60482625999376 99.49931677281471 77.54273980776414 0 0 0
4659 266 44 -0.75 103.24061982482789 102.55801331957356 74.37179304587018 0 0 0
4660 266 44 -0.75 100.65685710847696 105.30236677781744 77.65701667932647 0 0 0
4661 267 44 -0.75 6.09041764062677 68.80571554581167 71.10705717541681 0 0 0
4662 267 44 -0.75 5.587913924550597 63.87580738371524 70.44110257589465 0 0 0
4663 267 44 -0.75 8.717741769841194 65.95918646835963 73.73711672157272 0 0 0
4664 267 44 -0.75 11.334450101294228 61.70177494257024 73.57193618948774 0 0 0
4665 267 44 -0.75 15.99071631710238 62.44396200021261 71.90810227380031 0 0 0
4666 267 44 -0.75 14.228235635832633 63.775303784417005 76.39376731945211 0 0 0
4667 267 44 -0.75 18.69014406423326 63.61158655045246 78.64422723775112 0 0 0
4668 267 44 -0.75 17.128688139150814 62.878019761327955 83.33717249205769 0 0 0
4669 267 44 -0.75 12.412294290138197 61.377536889532884 82.62711600666687 0 0 0
4670 267 44 -0.75 13.017042219895616 60.35028808379324 77.77129065637259 0 0 0
4671 268 44 -0.75 32.689135050904255 58.345462777397735 24.838666009329344 0 0 0
4672 268 44 -0.75 35.41987427603373 62.32838667286067 26.134575160192046 0 0 0
4673 268 44 -0.75 35.7810712062276 60.69082593945138 21.42416842382473 0 0 0
4674 268 44 -0.75 35.471848910603605 65.55350438485543 20.30223263756429 0 0 0
4675 268 44 -0.75 36.283900422091016 62.16183822300539 16.7193325567286 0 0 0
4676 268 44 -0.75 32.34598197300752 59.87587804873398 14.65361612652506 0 0 0
4677 268 44 -0.75 32.05354738476007 60.80446836798884 9.749311687505934 0 0 0
4678 268 44 -0.75 30.35433483491745 65.38727447284646 8.69547824917846 0 0 0
4679 268 44 -0.75 35.04056848752275 65.71536135152176 10.407661987341704 0 0 0
4680 268 44 -0.75 30.661827768442855 64.57285377346193 8.281325666543054 0 0 0
4681 269 44 -0.75 26.81867126714314 19.469392383386253 7.982317163780986 0 0 0
4682 269 44 -0.75 29.600924386826698 15.321477097408856 8.214408435409522 0 0 0
4683 269 44 -0.75 28.704000680864276 14.559723706429612 13.073961875491673 0 0 0
4684 269 44 -0.75 28.54103496045461 9.56264409392058 13.125318668790564 0 0 0
4685 269 44 -0.75 25.052861676208487 6.090193779992824 12.245127805185037 0 0 0
4686 269 44 -0.75 23.83969741766931 10.60468513226313 14.019275575828654 0 0 0
4687 269 44 -0.75 24.90192243325267 13.857972867234713 10.374032520866146 0 0 0
4688 269 44 -0.75 24.053441355498993 16.03990229985403 5.95597142896582 0 0 0
4689 269 44 -0.75 27.816520999994346 14.458388690795118 3.0684038897477013 0 0 0
4690 269 44 -0.75 30.365468658087067 10.87330018860569 5.4453780729841945 0 0 0
4691 270 44 -0.75 44.961535694294206 26.407913606158203 65.68365405512385 0 0 0
4692 270 44 -0.75 47.805725034742785 22.580220723929543 64.18053922417623 0 0 0
4693 270 44 -0.75 47.49469675002063 26.60229576123232 67.13454900757381 0 0 0
4694 270 44 -0.75 49.86089671429781 22.286062039780155 68.01274271675983 0 0 0
4695 270 44 -0.75 47.33717728879118 18.36012629383242 66.21890081179431 0 0 0
4696 270 44 -0.75 48.127259104412666 22.910588812248818 64.30342134359014 0 0 0
4697 270 44 -0.75 47.256666342143085 27.343279791931757 66.44662430199641 0 0 0
4698 270 44 -0.75 51.50172936183895 29.11441225086119 68.4068614743144 0 0 0
4699 270 44 -0.75 51.15364489758927 24.786340944968284 65.92762046609141 0 0 0
4700 270 44 -0.75 52.6844747220131 22.500760947525603 70.10286706047891 0 0 0
4701 271 44 -0.75 83.40522597695225 33.714600874787244 106.11875969703839 0 0 0
4702 271 44 -0.75 79.50849185160338 34.107396100630964 2.335809848913854 0 0 1
4703 271 44 -0.75 82.53881857606225 32.03180645212507 105.83450406230655 0 0 0
4704 271 44 -0.75 78.68730848174808 31.01128681192661 1.9639749081681117 0 0 1
4705 271 44 -0.75 74.47605008940455 31.06407947640777 106.16026233368946 0 0 0
4706 271 44 -0.75 74.77720497685594 36.04371221349671 105.82475743435673 0 0 0
4707 271 44 -0.75 74.6375351709369 31.20159347109994 0.17226480124568866 0 0 1
4708 271 44 -0.75 76.86624084014832 26.978647412493824 105.58035368198225 0 0 0
4709 271 44 -0.75 78.89462968795605 31.508136913954857 104.97260082247146 0 0 0
4710 271 44 -0.75 80.35409992666145 32.99131596675614 2.6278489735552313 0 0 1
4711 272 44 -0.75 17.906250897808622 55.73251782534036 30.364730062158337 0 0 0
4712 272 44 -0.75 16.32080000021057 51.49222214314535 28.241939922068205 0 0 0
4713 272 44 -0.75 14.631279201744775 49.23001754026515 24.11544627657944 0 0 0
4714 272 44 -0.75 17.71736798678582 49.17013535535811 20.18194018979444 0 0 0
4715 272 44 -0.75 18.505074627183923 44.33019482676852 21.158922241005513 0 0 0
4716 272 44 -0.75 19.356156449876963 48.71950082668661 23.397147558118274 0 0 0
4717 272 44 -0.75 20.892866940976912 44.03691482732813 22.55340042469778 0 0 0
4718 272 44 -0.75 25.36133170729841 42.56320879123635 20.861947454222403 0 0 0
4719 272 44 -0.75 28.875433662542992 40.00774663295029 23.335952427077988 0 0 0
4720 272 44 -0.75 32.06726569830096 36.18767186089324 22.867724927455804 0 0 0
4721 273 44 -0.75 68.65789850315073 8.164822591845331 11.65019396061691 0 0 0
4722 273 44 -0.75 70.77277626974202 4.4897155053143365 14.299888270326523 0 0 0
4723 273 44 -0.75 72.89896938421214 4.634673504525777 9.77680414348956 0 0 0
4724 273 44 -0.75 70.96838310327281 8.040775173253035 12.886676815182446 0 0 0
4725 273 44 -0.75 74.07822567696907 11.012243850155691 10.337313547813006 0 0 0
4726 273 44 -0.75 75.25556384749532 6.3186497630463725 11.595903782033155 0 0 0
4727 273 44 -0.75 76.2133426758165 6.30574745500487 16.50329547686116 0 0 0
4728 273 44 -0.75 71.39004566827703 5.2414084698460455 17.279818819544328 0 0 0
4729 273 44 -0.75 71.66146049714952 8.450058846259525 21.104854342596337 0 0 0
4730 273 44 -0.75 75.08991556823297 12.08936451091644 21.13876753705305 0 0 0
4731 274 44 -0.75 25.36765233801893 55.96323686396341 87.09798382641716 0 0 0
4732 274 44 -0.75 29.704730429844876 53.491188626266535 86.81739313536843 0 0 0
4733 274 44 -0.75 25.767590794074394 56.55311181097303 86.46588509932666 0 0 0
4734 274 44 -0.75 26.651542936437004 61.01803290084733 88.5354522693427 0 0 0
4735 274 44 -0.75 29.102320072461904 58.875139035049315 92.3304090951133 0 0 0
4736 274 44 -0.75 29.200811139522784 53.878768157902314 92.49343537430327 0 0 0
4737 274 44 -0.75 33.20133390722053 54.17904626169807 95.47766905240437 0 0 0
4738 274 44 -0.75 35.510247100680715 49.858851240776865 94.47525454419275 0 0 0
4739 274 44 -0.75 35.628418759768365 45.49396615458794 96.91119658852672 0 0 0
4740 274 44 -0.75 33.296211886058494 45.68088447937529 92.4923876270441 0 0 0
4741 275 44 -0.75 24.40962646632654 41.84606565453066 98.30988191770545 0 0 0
4742 275 44 -0.75 20.887905027084827 38.98284748096064 96.21239299165039 0 0 0
4743 275 44 -0.75 21.677276342807705 43.91681254573859 96.39372601529665 0 0 0
4744 275 44 -0.75 18.267369187816985 46.98873764836602 94.40983857942976 0 0 0
4745 275 44 -0.75 21.12436346886623 42.88537829346901 94.41490638281417 0 0 0
4746 275 44 -0.75 22.24572637086367 38.47584788990452 92.34160301329385 0 0 0
4747 275 44 -0.75 23.13051588819432 41.58184772418106 96.15865849356865 0 0 0
4748 275 44 -0.75 23.71371606175115 46.3622286331115 97.50321638488337 0 0 0
4749 275 44 -0.75 21.35677940047205 48.18175750511683 93.48648086226584 0 0 0
4750 275 44 -0.75 20.55106587475137 52.73506304383681 95.38864657153847 0 0 0
4751 276 44 -0.75 33.8246578597226 20.076736766359804 95.66454207498778 0 0 0
4752 276 44 -0.75 32.88201963274193 21.43338344338292 90.94533208106327 0 0 0
4753 276 44 -0.75 34.82920666780277 25.838777226025478 89.6033304900265 0 0 0
4754 276 44 -0.75 32.523038574224344 30.2334459990403 90.21035198853315 0 0 0
4755 276 44 -0.75 28.20407366143042 28.577844118290194 88.31153011839585 0 0 0
4756 276 44 -0.75 25.21180640015379 25.098300106754333 90.29624926952958 0 0 0
4757 276 44 -0.75 28.237350139879638 22.498135366650914 87.28207800642447 0 0 0
4758 276 44 -0.75 31.600243296167985 18.850485834698866 87.90304701647166 0 0 0
4759 276 44 -0.75 33.53391914709789 18.47544893249923 83.30737024090107 0 0 0
4760 276 44 -0.75 29.847630875565162 15.509371088375666 84.92405233759156 0 0 0
4761 277 44 -0.75 87.6527183004755 38.09549041097244 26.40148499777343 0 0 0
4762 277 44 -0.75 88.44296597885545 33.19500662461137 25.80084594940294 0 0 0
4763 277 44 -0.75 86.4452526243857 35.88024304078973 22.08619297199 0 0 0
4764 277 44 -0.75 86.87061594587244 38.906402800952755 26.04364457001414 0 0 0
4765 277 44 -0.75 91.74293445618363 38.502724025200074 27.091287534046185 0 0 0
4766 277 44 -0.75 89.78141052352008 34.54861804302906 24.742358045247617 0 0 0
4767 277 44 -0.75 94.10469540788218 36.0815977329014 22.752588943295045 0 0 0
4768 277 44 -0.75 98.9901517256958 36.93706512815629 22.11974448974366 0 0 0
4769 277 44 -0.75 102.26522626452284 33.160343055352 22.22102207818115 0 0 0
4770 277 44 -0.75 102.9713452466588 32.89980759939251 27.164049213374245 0 0 0
4771 278 44 -0.75 1.2164874045285738 72.02135964981943 84.5194166027565 0 0 0
4772 278 44 -0.75 1.3955222099785118 70.70230456052057 79.6998688843671 0 0 0
4773 278 44 -0.75 0.02752671194914469 66.25712247808163 81.53533737261067 0 0 0
4774 278 44 -0.75 2.5124731249825443 70.51796891418871 82.35401250492258 0 0 0
4775 278 44 -0.75 3.3440807011414293 66.24016358833835 84.80530001017392 0 0 0
4776 278 44 -0.75 2.455953320560988 61.748659419211755 82.79591700671696 0 0 0
4777 278 44 -0.75 1.0912753916104363 63.079055693469826 87.41843795352462 0 0 0
4778 278 44 -0.75 105.85563882960477 61.51854817208251 83.17091955095222 -1 0 0
4779 278 44 -0.75 1.0102616280433865 57.30101502603251 84.91076211856823 0 0 0
4780 278 44 -0.75 3.787604430504857 60.66931258902476 82.4733580723018 0 0 0
4781 279 44 -0.75 44.13159524452433 11.788210127961314 34.04711401785633 0 0 0
4782 279 44 -0.75 48.837410868065355 10.633964909660925 32.813008149922844 0 0 0
4783 279 44 -0.75 52.16478748998423 13.309857422697538 35.414577690523735 0 0 0
4784 279 44 -0.75 52.86716618761883 16.839073756827617 38.88607538345377 0 0 0
4785 279 44 -0.75 52.0026598194338 21.29719669244927 40.97838717433287 0 0 0
4786 279 44 -0.75 54.89900755251671 17.349906377522103 41.99331031366301 0 0 0
4787 279 44 -0.75 51.947191401281714 14.004369433084058 39.736284845772055 0 0 0
4788 279 44 -0.75 55.27341408251749 12.498464089772801 43.1522022586817 0 0 0
4789 279 44 -0.75 50.419602061808334 13.168027304284337 42.156112920623976 0 0 0
4790 279 44 -0.75 46.68936618042811 13.6357249553 38.85966040670876 0 0 0
4791 280 44 -0.75 32.35581567577389 72.53189653331803 30.360809767243857 0 0 0
4792 280 44 -0.75 27.699149405181178 72.03536553483218 32.11264201145755 0 0 0
4793 280 44 -0.75 27.154651242544272 75.67234166706342 28.72502834333284 0 0 0
4794 280 44 -0.75 24.799194308409557 80.08039640761939 28.869513760239837 0 0 0
4795 280 44 -0.75 27.70378314805356 76.18284533382715 27.697993679406185 0 0 0
4796 280 44 -0.75 24.547394889356614 72.34244718768322 28.235167058730156 0 0 0
4797 280 44 -0.75 22.04547698573774 69.66805079097786 24.831050327940694 0 0 0
4798 280 44 -0.75 17.312978065406938 68.16069773965786 24.255428275076046 0 0 0
4799 280 44 -0.75 16.41398585764955 63.43421500476884 25.616374257540983 0 0 0
4800 280 44 -0.75 14.722540199464362 68.00754097955712 24.51016400911022 0 0 0
4801 281 44 -0.75 65.74138053056672 85.25632668677217 73.09789501919074 0 0 0
4802 281 44 -0.75 69.96513105230896 84.94128692232503 70.44070073256074 0 0 0
4803 281 44 -0.75 70.73551481063932 85.6560651220119 65.5523880389871 0 0 0
4804 281 44 -0.75 68.99387889579612 83.74525468421527 69.83205015309562 0 0 0
4805 281 44 -0.75 64.91836970596434 84.4996248840698 67.03541817066244 0 0 0
4806 281 44 -0.75 60.73490251842661 87.11110266439438 67.85930292817783 0 0 0
4807 281 44 -0.75 58.457356022808725 90.60704551847938 65.10409594479697 0 0 0
4808 281 44 -0.75 58.0693865969331 89.89032694503331 70.0372282368669 0 0 0
4809 281 44 -0.75 55.1126536287349 87.5327094511392 66.76623910401209 0 0 0
4810 281 44 -0.75 50.34329706038769 88.47643333498546 65.5989245983961 0 0 0
4811 282 44 -0.75 77.91742035633263 52.79719304927451 55.13145296761022 0 0 0
4812 282 44 -0.75 78.68337781041488 57.65206810780943 54.21303185257015 0 0 0
4813 282 44 -0.75 81.99530126422825 53.97282905087236 54.91614137319251 0 0 0
4814 282 44 -0.75 84.66724467344329 49.75345587793436 54.67612377916379 0 0 0
4815 282 44 -0.75 80.1572675325058 51.68600889853253 55.6380723280988 0 0 0
4816 282 44 -0.75 83.67698951255382 53.4737181784347 52.56957877038705 0 0 0
4817 282 44 -0.75 85.62026045751931 50.35921527734668 55.964217147823916 0 0 0
4818 282 44 -0.75 84.832054195522 54.49174104488982 58.666246324043186 0 0 0
4819 282 44 -0.75 87.55833964674883 52.235746818715604 55.133845201591555 0 0 0
4820 282 44 -0.75 84.68583621536747 52.14984651109788 59.225464095605695 0 0 0
4821 283 44 -0.75 52.6010905150631 43.380330361788694 72.88251328203573 0 0 0
4822 283 44 -0.75 51.51476554360475 43.58058553113554 77.7589664934934 0 0 0
4823 283 44 -0.75 52.74695548011463 45.552519279302686 73.33254748336758 0 0 0
4824 283 44 -0.75 54.802841131853135 44.09239750114688 69.01498120362956 0 0 0
4825 283 44 -0.75 56.7467114043992 40.375293596433984 71.73610356858852 0 0 0
4826 283 44 -0.75 52.7407587233571 41.246402967776824 68.87367250733827 0 0 0
4827 283 44 -0.75 49.66269846661967 42.43068052061588 72.63173473855998 0 0 0
4828 283 44 -0.75 50.23961799284192 37.470214426637874 72.87859500421261 0 0 0
4829 283 44 -0.75 53.621549653504246 39.680869758208146 69.93316782846888 0 0 0
4830 283 44 -0.75 52.794934720275684 44.02463540440495 72.26735028986388 0 0 0
4831 284 44 -0.75 30.993360539142394 3.259198552566729 96.60479645824391 0 0 0
4832 284 44 -0.75 29.735970315868887 0.9932200233729374 92.32878065709806 0 0 0
4833 284 44 -0.75 26.37063789183031 104.19306465264116 92.54897462951968 0 -1 0
4834 284 44 -0.75 31.186708465091844 105.50366106348912 92.25266181974469 0 -1 0
4835 284 44 -0.75 31.516546737599924 3.583617266639237 91.829716205527 0 0 0
4836 284 44 -0.75 35.997847919698856 4.65210448347163 93.77298015640564 0 0 0
4837 284 44 -0.75 33.04620004561305 3.2630685001523014 97.56222201520124 0 0 0
4838 284 44 -0.75 29.356765216085815 3.4954469021212784 100.92883320703342 0 0 0
4839 284 44 -0.75 32.14704935762467 106.73138328350669 102.89184465898798 0 -1 0
4840 284 44 -0.75 33.49207701499626 103.71395923386429 99.13870561206404 0 -1 0
4841 285 44 -0.75 101.61940374622158 46.16244280615277 36.44091467104797 0 0 0
4842 285 44 -0.75 99.38519635401366 49.00433201863958 32.986644410550895 0 0 0
4843 285 44 -0.75 104.37333593089195 49.32173092342182 32.85352229810002 0 0 0
4844 285 44 -0.75 101.67062000367739 45.11767334867828 32.70782904148802 0 0 0
4845 285 44 -0.75 104.20617983386292 43.25575251008011 28.821418468948963 0 0 0
4846 285 44 -0.75 0.3918931321789927 40.8005958179272 31.90441273887015 1 0 0
4847 285 44 -0.75 2.4437869715732745 44.45608789774405 34.62968507870192 1 0 0
4848 285 44 -0.75 5.0602995433768 43.31735173680183 38.73543006802562 1 0 0
4849 285 44 -0.75 9.465322228641682 43.351476564609136 36.37013713935296 1 0 0
4850 285 44 -0.75 13.744274679131735 45.69058800797406 35.26599784471461 1 0 0
4851 286 44 -0.75 99.92490957837056 91.40241661464563 54.588662265397 0 0 0
4852 286 44 -0.75 103.81236024413498 89.853633107651 57.325265446296484 0 0 0
4853 286 44 -0.75 99.51923964458983 88.6304173406816 55.07296468813861 0 0 0
4854 286 44 -0.75 102.30944391802885 90.2511996546751 58.89236579343359 0 0 0
4855 286 44 -0.75 104.4612549431109 87.58977116375321 55.247299580037115 0 0 0
4856 286 44 -0.75 100.32865913188557 84.78894370728096 55.52481970563894 0 0 0
4857 286 44 -0.75 96.1244050369324 87.34941630575044 54.64833378016352 0 0 0
4858 286 44 -0.75 100.80571920377638 89.0904653275096 54.88081168263451 0 0 0
4859 286 44 -0.75 102.95452746033575 89.2851932911796 50.37030127950858 0 0 0
4860 286 44 -0.75 103.99394373945314 91.84130444214752 46.20065985816271 0 0 0
4861 287 44 -0.75 21.90592534245058 33.62586826244379 84.93027725229804 0 0 0
4862 287 44 -0.75 25.15850833291656 36.41427372474625 82.35239074045677 0 0 0
4863 287 44 -0.75 23.990753765604776 31.605107915464327 83.06532375929949 0 0 0
4864 287 44 -0.75 21.317359443167067 35.67404547089929 84.20405549536764 0 0 0
4865 287 44 -0.75 24.34624800276587 39.287330831335304 82.53972289711984 0 0 0
4866 287 44 -0.75 24.04738419537133 34.30449049135039 82.82604888414984 0 0 0
4867 287 44 -0.75 19.880715676952747 31.73355816126477 81.81156359015095 0 0 0
4868 287 44 -0.75 16.818550609665845 31.542840971113595 85.75957220894456 0 0 0
4869 287 44 -0.75 12.534489524112917 29.254762571566232 86.94764537705159 0 0 0
4870 287 44 -0.75 13.839279176592296 28.208162865896888 91.659561443672 0 0 0
4871 288 44 -0.75 10.771298593679532 104.09449591556177 30.830858021304476 0 0 0
4872 288 44 -0.75 15.053936841213082 106.64602074921491 30.445201873921786 0 0 0
4873 288 44 -0.75 16.906378818668067 103.97893850131662 26.64321147373553 0 0 0
4874 288 44 -0.75 20.241931370442234 102.90177786198579 30.208855052590437 0 0 0
4875 288 44 -0.75 20.62900554989331 100.51465887360554 34.58513618100492 0 0 0
4876 288 44 -0.75 16.24886852147985 102.09972364065484 36.402268343666805 0 0 0
4877 288 44 -0.75 14.870279146852027 101.7461713512571 41.19543974836588 0 0 0
4878 288 44 -0.75 16.96877364889261 106.10145409594402 42.47130535207882 0 0 0
4879 288 44 -0.75 21.404417580539455 103.79616241710315 42.36789748433373 0 0 0
4880 288 44 -0.75 24.97354253172989 106.43137438145142 44.67376066018472 0 0 0
4881 289 44 -0.75 47.51952964471376 98.48574108327813 39.09481622749224 0 0 0
4882 289 44 -0.75 42.56313630129901 97.94452913489889 39.470654826209234 0 0 0
4883 289 44 -0.75 46.31890355707809 101.11088726723526 38.538781176938535 0 0 0
4884 289 44 -0.75 45.001358522318924 96.41356845269323 39.63389351634988 0 0 0
4885 289 44 -0.75 45.201627065839396 92.20514216382752 42.32629777308033 0 0 0
4886 289 44 -0.75 48.22841545051277 88.27825718905494 42.972924767035664 0 0 0
4887 289 44 -0.75 52.86581036736759 89.97499381349469 43.75756048659852 0 0 0
4888 289 44 -0.75 51.1880236893983 94.216203074793 45.80626150556303 0 0 0
4889 289 44 -0.75 48.966187509637564 91.20472655506734 42.49047303802665 0 0 0
4890 289 44 -0.75 49.80037823997582 88.03086192336698 38.71811182453459 0 0 0
4891 290 44 -0.75 78.83239198190923 59.58191544784758 90.08031919584681 0 0 0
4892 290 44 -0.75 77.89886497538522 55.92713158879092 93.36225189955499 0 0 0
4893 290 44 -0.75 82.74936844374216 56.04522142491015 94.57000638373741 0 0 0
4894 290 44 -0.75 77.91065433351083 57.30428582619619 94.52997398607582 0 0 0
4895 290 44 -0.75 75.67354411981161 61.775831239901876 94.55486384204708 0 0 0
4896 290 44 -0.75 75.221106105625 65.82642942715566 91.65866734168058 0 0 0
4897 290 44 -0.75 73.5822137151025 69.34381248697788 94.81176869475554 0 0 0
4898 290 44 -0.75 75.45180687746848 68.57168436325789 90.2391939749948 0 0 0
4899 290 44 -0.75 75.62772559956187 64.81167434324055 86.9480881953842 0 0 0
4900 290 44 -0.75 78.34879230688884 67.56834458668641 83.78635368041036 0 0 0
4901 291 44 -0.75 42.53641131335117 61.21124611945341 15.030254249172787 0 0 0
4902 291 44 -0.75 42.73442607080893 65.57354413889558 17.465648702931745 0 0 0
4903 291 44 -0.75 44.16938275236832 64.33358117730178 12.839268781662462 0 0 0
4904 291 44 -0.75 43.209851000009486 60.30453197610193 15.640350956559512 0 0 0
4905 291 44 -0.75 42.8258019042851 64.93712171059065 17.481985731422043 0 0 0
4906 291 44 -0.75 42.58820810131955 69.66484521987802 19.092010453134066 0 0 0
4907 291 44 -0.75 47.19374771346445 68.77981544523878 17.358307139713265 0 0 0
4908 291 44 -0.75 45.43861601009466 68.37732651177707 22.02280232807686 0 0 0
4909 291 44 -0.75 47.60238026144387 72.56630318118383 23.687313886387305 0 0 0
4910 291 44 -0.75 48.75298713664213 76.50663409875891 26.542116170039954 0 0 0
4911 292 44 -0.75 1.731609242926336 15.395377429325412 70.54625887287033 0 0 0
4912 292 44 -0.75 105.65729783541032 12.298531093297862 73.11828663027038 -1 0 0
4913 292 44 -0.75 105.15445463411427 10.41396496857693 77.72215014219867 -1 0 0
4914 292 44 -0.75 100.87229478884034 11.382859404813383 80.11471166302807 -1 0 0
4915 292 44 -0.75 102.02865933234993 11.698760951458613 84.96888793252437 -1 0 0
4916 292 44 -0.75 105.25129168593432 12.321886629479653 88.74067200680831 -1 0 0
4917 292 44 -0.75 100.37680968097534 11.318339720740532 88.25867741628757 -1 0 0
4918 292 44 -0.75 95.38290134048052 11.07554515707052 88.21474238939003 -1 0 0
4919 292 44 -0.75 92.06393466608269 13.62590888742711 90.94972046190145 -1 0 0
4920 292 44 -0.75 87.71611611595901 15.114644353413714 92.9195277031091 -1 0 0
4921 293 44 -0.75 3.753133809298761 6.387614093376312 23.09007130513259 0 0 0
4922 293 44 -0.75 105.720747260304 5.606112680108227 22.70585699271793 -1 0 0
4923 293 44 -0.75 103.37171346950933 1.507133470458914 24.343052670872357 -1 0 0
4924 293 44 -0.75 101.63481374261885 105.46950553218429 28.00436222484958 -1 -1 0
4925 293 44 -0.75 99.45823042725885 0.977968086635459 24.195932283410652 -1 0 0
4926 293 44 -0.75 102.84051846332059 0.9892891493164558 27.87832273998277 -1 0 0
4927 293 44 -0.75 100.060131207004 4.481081300317673 25.625139596268387 -1 0 0
4928 293 44 -0.75 99.45056745838647 106.55744188677241 26.82756278428691 -1 -1 0
4929 293 44 -0.75 102.75024417628728 105.45785929498938 30.41964458753013 -1 -1 0
4930 293 44 -0.75 102.23043096230408 2.00802529025936 26.82981966728696 -1 0 0
4931 294 44 -0.75 22.521926229856582 38.61953548753734 93.48470689443248 0 0 0
4932 294 44 -0.75 20.91485796276287 43.086235357643865 95.05503292914335 0 0 0
4933 294 44 -0.75 16.261338349896512 41.27378493097342 95.29952968480747 0 0 0
4934 294 44 -0.75 17.031714837679548 37.2352041221199 98.14494443795526 0 0 0
4935 294 44 -0.75 20.183892479062354 39.018636087375086 101.59213844793966 0 0 0
4936 294 44 -0.75 21.45875746455386 40.67447521594893 97.04979147208549 0 0 0
4937 294 44 -0.75 25.433002077242627 40.41841068039527 94.02657948610998 0 0 0
4938 294 44 -0.75 27.754463666285098 37.19044177701143 90.9949078598636 0 0 0
4939 294 44 -0.75 30.808598263452968 35.19458309114384 94.41379802604753 0 0 0
4940 294 44 -0.75 26.750663899193647 36.76366842193218 96.87776635377989 0 0 0
4941 295 44 -0.75 71.648638841508 84.92805618401407 94.62401913894776 0 0 0
4942 295 44 -0.75 69.41263220960715 82.63922271479393 98.46609093581377 0 0 0
4943 295 44 -0.75 73.36345819178491 81.94478369446091 95.48134161542049 0 0 0
4944 295 44 -0.75 73.21436937869368 82.18503015219994 90.48934260046116 0 0 0
4945 295 44 -0.75 74.10883809291758 85.26673248678311 94.32379646513331 0 0 0
4946 295 44 -0.75 77.39764983883185 81.64449473903619 95.35486920686085 0 0 0
4947 295 44 -0.75 72.65803167548648 81.91331647694898 93.7852340457765 0 0 0
4948 295 44 -0.75 73.02473578623199 77.55714470665578 96.21202114044776 0 0 0
4949 295 44 -0.75 73.11100879706014 73.80153171006704 92.91233509667687 0 0 0
4950 295 44 -0.75 74.85618779143127 69.22090936356021 91.92630812124055 0 0 0
4951 296 44 -0.75 75.42317882495071 43.65741816200064 28.60403442046593 0 0 0
4952 296 44 -0.75 76.16464730213569 47.128155285868765 25.082073558340316 0 0 0
4953 296 44 -0.75 79.43395204192667 50.189705148443466 27.304360433914443 0 0 0
4954 296 44 -0.75 80.60035148714225 51.707743439628274 31.923350808519864 0 0 0
4955 296 44 -0.75 77.55963042599272 52.88754098248528 35.713086048104586 0 0 0
4956 296 44 -0.75 73.09780116735966 54.058533383361144 37.64203821544751 0 0 0
4957 296 44 -0.75 78.0195128473188 54.936748352896366 37.567926093374574 0 0 0
4958 296 44 -0.75 82.24511613393216 56.63373854676198 39.632992955751256 0 0 0
4959 296 44 -0.75 82.1538482985629 58.12586777259522 34.861701667678254 0 0 0
4960 296 44 -0.75 83.87518275787836 62.125899388174446 32.40472084692694 0 0 0
4961 297 44 -0.75 11.96562339621928 74.6734323405052 16.216700585337342 0 0 0
4962 297 44 -0.75 15.508287535279276 75.86188422789402 12.894485524691776 0 0 0
4963 297 44 -0.75 18.40783097701663 75.49493799192503 16.951331379464435 0 0 0
4964 297 44 -0.75 13.945979125225806 73.24024359507695 17.04205750300494 0 0 0
4965 297 44 -0.75 12.961165580133938 78.13062731283549 17.380124618361826 0 0 0
4966 297 44 -0.75 16.573901829502258 74.6789288479561 17.195965719447326 0 0 0
4967 297 44 -0.75 17.25223745229153 75.76556146328969 22.029090003194682 0 0 0
4968 297 44 -0.75 17.26846123802977 80.76539779522022 22.066149990831594 0 0 0
4969 297 44 -0.75 22.147207069525006 79.82498940974327 22.6260349613322 0 0 0
4970 297 44 -0.75 19.602662165707535 83.76062557138277 24.368464080594165 0 0 0
4971 298 44 -0.75 61.133949324510425 40.38624768294237 100.83474747168093 0 0 0
4972 298 44 -0.75 60.42732629638669 42.50648854731484 105.30747176154838 0 0 0
4973 298 44 -0.75 55.58607868483703 42.95448189404164 104.14058550961413 0 0 0
4974 298 44 -0.75 51.37370876562238 41.974520337663414 106.64969192659136 0 0 0
4975 298 44 -0.75 55.815708887087574 42.97226938138109 104.58253644945286 0 0 0
4976 298 44 -0.75 57.43892202273476 41.77849608621031 100.006502748091 0 0 0
4977 298 44 -0.75 59.98208528061959 45.171350454188364 102.65619327368768 0 0 0
4978 298 44 -0.75 55.718629315730595 42.666592647535175 103.39722739264737 0 0 0
4979 298 44 -0.75 54.02135389228055 46.92646968502082 101.40406313387314 0 0 0
4980 298 44 -0.75 56.41973794526467 44.73808949256239 105.206528921707 0 0 0
4981 299 44 -0.75 68.91936297688251 92.5161773503516 7.454093234344929 0 0 0
4982 299 44 -0.75 70.4078470846037 91.94539726344011 2.7150400426781856 0 0 0
4983 299 44 -0.75 70.60120619130394 96.92950366395777 2.366764800700009 0 0 0
4984 299 44 -0.75 72.38939110902363 100.01286206104996 5.873229643689449 0 0 0
4985 299 44 -0.75 73.77728543479063 102.83588764547932 9.759651634436342 0 0 0
4986 299 44 -0.75 69.21919130882198 100.78204770887048 9.685358609187617 0 0 0
4987 299 44 -0.75 70.66910496536879 97.16779200238548 6.549293227742318 0 0 0
4988 299 44 -0.75 69.05204944598214 98.37170536271265 1.9737359864823079 0 0 0
4989 299 44 -0.75 66.10830345178006 100.40386366740168 105.37140746469672 0 0 -1
4990 299 44 -0.75 70.61049461615234 102.38489167897183 106.26907262321774 0 0 -1
4991 300 44 -0.75 105.51711699146352 63.899349773735594 99.92189089964087 0 0 0
4992 300 44 -0.75 102.38010700667807 67.7422318054521 99.29625039130823 0 0 0
4993 300 44 -0.75 104.61191992647836 64.14607394599875 96.63417230437985 0 0 0
4994 300 44 -0.75 104.00603413525182 59.64053093643884 94.55259007035795 0 0 0
4995 300 44 -0.75 1.7779414104183786 58.29212585549066 95.75146462507263 1 0 0
4996 300 44 -0.75 0.296520421784507 53.53528044882509 96.17314416159262 1 0 0
4997 300 44 -0.75 102.37723802610031 52.620075267338876 95.16233923484239 0 0 0
4998 300 44 -0.75 106.35950421488769 50.29988484347408 97.10096565544205 0 0 0
4999 300 44 -0.75 0.5685716793085049 50.96095767564358 92.2685325445559 1 0 0
5000 300 44 -0.75 1.480830084168403 54.39726093656103 88.75290962652693 1 0 0
5001 301 44 -0.75 33.61796573718933 102.11010157959869 19.853113686690786 0 0 0
5002 301 44 -0.75 34.32951962195561 104.12629293471217 24.372921590644196 0 0 0
5003 301 44 -0.75 30.135425320199282 106.83577287799868 24.11159531009969 0 0 0
5004 301 44 -0.75 25.203096970449764 0.6483652294734412 23.69109165330751 0 1 0
5005 301 44 -0.75 26.900616531180816 103.7696477519477 20.87929456834895 0 0 0
5006 301 44 -0.75 26.84342945326934 102.56266768012307 25.731091013413206 0 0 0
5007 301 44 -0.75 31.685863801763542 103.65676200621844 26.32589113625234 0 0 0
5008 301 44 -0.75 34.39530403479634 105.4457352329851 30.12832567448377 0 0 0
5009 301 44 -0.75 38.20243700727915 104.49124550917641 33.22585499589104 0 0 0
5010 301 44 -0.75 40.42444073205074 103.31797986217849 28.903107354786396 0 0 0
5011 302 44 -0.75 55.81793971403922 36.494556547918855 23.001733563002634 0 0 0
5012 302 44 -0.75 56.8179051771178 35.67378207589118 18.171992541092894 0 0 0
5013 302 44 -0.75 56.98460787097432 38.51206034875588 22.284946061088615 0 0 0
5014 302 44 -0.75 55.37289257014703 36.06066254698164 26.333775843449885 0 0 0
5015 302 44 -0.75 58.39605916342029 39.06719814226619 28.94551998551348 0 0 0
5016 302 44 -0.75 53.833996234890904 40.197776821430956 27.239831360249205 0 0 0
5017 302 44 -0.75 58.378774035437544 38.11333281610932 27.230454135863802 0 0 0
5018 302 44 -0.75 54.33756551497007 35.802004211260275 29.054294527594305 0 0 0
5019 302 44 -0.75 49.36916311395024 36.30569313466891 28.80675655075876 0 0 0
5020 302 44 -0.75 53.12658843394791 33.89547846953441 31.059004368520178 0 0 0
5021 303 44 -0.75 21.093689061971645 101.21465840892762 23.802425450983176 0 0 0
5022 303 44 -0.75 23.310742130636907 99.94890904312669 19.503291324941458 0 0 0
5023 303 44 -0.75 20.545452683216052 100.2528345215259 23.657903650485522 0 0 0
5024 303 44 -0.75 20.472509084239558 104.1335419581545 20.505953615560507 0 0 0
5025 303 44 -0.75 21.360800765832664 99.34841104587609 19.359890772270454 0 0 0
5026 303 44 -0.75 16.48329240497482 98.40288616327244 18.797845501727956 0 0 0
5027 303 44 -0.75 20.56798918580689 100.5763239491238 20.692949825952255 0 0 0
5028 303 44 -0.75 16.064795935611063 101.52380865964275 18.737566673032205 0 0 0
5029 303 44 -0.75 12.429995926268338 103.5853623427978 21.483149544400693 0 0 0
5030 303 44 -0.75 11.906872291540338 99.41100176983099 24.185196077983925 0 0 0
5031 304 44 -0.75 79.23892456096921 70.96099053844304 11.68057835989748 0 0 0
5032 304 44 -0.75 78.49108544255522 67.21858048724009 8.450237253818297 0 0 0
5033 304 44 -0.75 83.3719778122536 66.13730719271527 8.538201666892867 0 0 0
5034 304 44 -0.75 85.88462392190122 65.97973891772267 4.218273222301619 0 0 0
5035 304 44 -0.75 81.63538953533198 64.02002109982716 5.97995230835004 0 0 0
5036 304 44 -0.75 77.16050966770308 65.47447224544293 7.6711122757412165 0 0 0
5037 304 44 -0.75 79.6080648286669 61.36539126404581 9.128825286714205 0 0 0
5038 304 44 -0.75 80.8431118692366 56.60130107328709 10.01092701661647 0 0 0
5039 304 44 -0.75 81.71107850858648 53.82735560260765 5.942529243699876 0 0 0
5040 304 44 -0.75 82.00718542693947 49.53487784970716 3.3955790216189983 0 0 0
5041 305 44 -0.75 21.846441759646375 7.703747298913885 105.81204579610274 0 0 0
5042 305 44 -0.75 25.25077657143956 9.452319778387231 2.1384604807738867 0 0 1
5043 305 44 -0.75 27.57412061805564 13.427675591476952 4.087464996004002 0 0 1
5044 305 44 -0.75 30.296735042869145 9.234063353581316 4.118883015823883 0 0 1
5045 305 44 -0.75 26.11142603819563 7.169303324882772 2.3244598329354176 0 0 1
5046 305 44 -0.75 27.435565362624466 6.193943569810191 104.49385984274355 0 0 0
5047 305 44 -0.75 29.524366674546386 4.327713323196097 1.7444169935007778 0 0 1
5048 305 44 -0.75 31.454261028510107 8.299795201986287 4.0892140701633934 0 0 1
5049 305 44 -0.75 29.001736603537516 5.1607917014133236 7.111097748980882 0 0 1
5050 305 44 -0.75 25.18058120102801 4.5283289460960345 3.949015799851665 0 0 1
5051 306 44 -0.75 88.88937503432415 0.5867324882125801 88.51139896346429 0 0 0
5052 306 44 -0.75 87.170967372659 102.78557702386092 88.68152138393631 0 -1 0
5053 306 44 -0.75 82.79656554836478 105.06189038692493 89.50796324683266 0 -1 0
5054 306 44 -0.75 83.32208372847889 100.45123565532056 87.6463259061286 0 -1 0
5055 306 44 -0.75 80.91548273210226 103.75693436718564 90.52393388335771 0 -1 0
5056 306 44 -0.75 77.92406309518982 106.4576863465877 93.48321543495946 0 -1 0
5057 306 44 -0.75 82.36862859915867 106.27058034924138 91.20049144229472 0 -1 0
5058 306 44 -0.75 78.46743469352589 103.20043090617789 90.60478303383421 0 -1 0
5059 306 44 -0.75 74.22650965869775 102.2610324842077 88.12847823559797 0 -1 0
5060 306 44 -0.75 76.80282410978447 99.54394771130437 84.81486175417189 0 -1 0
5061 307 44 -0.75 40.20897342248724 39.65386714259308 81.02649439350316 0 0 0
5062 307 44 -0.75 39.04168401797919 42.24975893231841 76.91568166824311 0 0 0
5063 307 44 -0.75 36.461960307331694 45.778507203935405 74.48813945186805 0 0 0
5064 307 44 -0.75 36.58162951400961 47.45656172924072 79.19662246565025 0 0 0
5065 307 44 -0.75 37.76286250893975 48.46380445775889 83.94953217419045 0 0 0
5066 307 44 -0.75 35.78806378598507 46.34227190823591 88.02375230142107 0 0 0
5067 307 44 -0.75 39.71313430113965 49.35110034648089 88.75912491464 0 0 0
5068 307 44 -0.75 38.90964688008053 46.51364447752243 84.72139632595143 0 0 0
5069 307 44 -0.75 35.61325587911423 49.73326149302756 82.78029544186059 0 0 0
5070 307 44 -0.75 31.31681212816176 49.416959409249486 85.3181142073951 0 0 0
5071 308 44 -0.75 41.27173658049216 50.04711296472327 36.84401201683228 0 0 0
5072 308 44 -0.75 38.11759643682908 53.91701735450568 36.569712968208584 0 0 0
5073 308 44 -0.75 39.61295978406432 51.0331018237868 32.76880259417662 0 0 0
5074 308 44 -0.75 40.4725184352136 55.84463040152676 31.715070336519975 0 0 0
5075 308 44 -0.75 42.05313512254398 52.82305282036035 28.058334112955947 0 0 0
5076 308 44 -0.75 37.74317783784783 55.22096370551524 28.879486712020423 0 0 0
5077 308 44 -0.75 35.43099442601979 59.16546355810575 30.90303033225218 0 0 0
5078 308 44 -0.75 30.869446666953152 61.01576076866683 31.77977560560361 0 0 0
5079 308 44 -0.75 34.875494775885066 62.28156309766845 29.068812121375704 0 0 0
5080 308 44 -0.75 38.84276118652712 62.03732742300786 32.10215123235792 0 0 0
5081 309 44 -0.75 38.21094543285563 98.27655967838665 77.16730137116171 0 0 0
5082 309 44 -0.75 38.40680509143987 103.27232548063878 77.23025407711826 0 0 0
5083 309 44 -0.75 34.41139608419775 105.87750379694229 78.73017167655848 0 0 0
5084 309 44 -0.75 30.141824914567135 106.49589673006665 81.25769065922131 0 0 0
5085 309 44 -0.75 31.472113098443387 103.10709224511461 77.83039762964123 0 0 0
5086 309 44 -0.75 28.796103854179645 98.89683097019113 77.4947273725516 0 0 0
5087 309 44 -0.75 28.51395557316993 99.57199922795706 72.54856318489783 0 0 0
5088 309 44 -0.75 23.71879640017586 100.71752657687357 73.38175919937171 0 0 0
5089 309 44 -0.75 19.906134434691193 101.40286217265306 70.22044240757369 0 0 0
5090 309 44 -0.75 22.743797325837797 99.81750807661568 74.01969519021226 0 0 0
5091 310 44 -0.75 74.10727135458943 67.36038488915571 31.671125731826336 0 0 0
5092 310 44 -0.75 70.47049112632887 67.70175401386805 28.25684737585912 0 0 0
5093 310 44 -0.75 72.11559882561075 63.018440095038805 28.857006850885288 0 0 0
5094 310 44 -0.75 73.64380714246789 66.64502348161679 25.772777241973973 0 0 0
5095 310 44 -0.75 74.40789245809604 61.70930485775634 25.538565166028967 0 0 0
5096 310 44 -0.75 75.89957211795375 66.3557196018276 26.627473710601897 0 0 0
5097 310 44 -0.75 79.99433904321346 63.62490695999598 25.746822733760443 0 0 0
5098 310 44 -0.75 75.20279639578743 62.880242286787336 24.52756329361958 0 0 0
5099 310 44 -0.75 74.12120720524443 58.40401990242914 26.47527938911994 0 0 0
5100 310 44 -0.75 69.26530689280344 57.21509017954805 26.557000070011565 0 0 0
5101 311 44 -0.75 88.76577369357744 57.146702574987096 65.08089941974083 0 0 0
5102 311 44 -0.75 84.2790098106318 55.659915529325424 66.71136381357077 0 0 0
5103 311 44 -0.75 81.5676865115667 51.60036714254215 65.63025657406489 0 0 0
5104 311 44 -0.75 86.16053148397233 50.953212785637795 67.49759861498508 0 0 0
5105 311 44 -0.75 81.44670275605863 52.07938525868184 66.26814577536362 0 0 0
5106 311 44 -0.75 79.63879068673674 51.080813742912575 61.71465163596973 0 0 0
5107 311 44 -0.75 79.53699038028108 49.04145720035828 57.150589674301536 0 0 0
5108 311 44 -0.75 82.38894163884635 52.887109152489444 55.70929335437361 0 0 0
5109 311 44 -0.75 84.31300628737989 54.64782537545967 59.97518758775926 0 0 0
5110 311 44 -0.75 80.33231429203424 51.83479678684516 61.0891720570534 0 0 0
5111 312 44 -0.75 32.89638737554598 57.707949399197936 72.18547025737259 0 0 0
5112 312 44 -0.75 37.789970847349274 56.79500014638756 71.71710665258827 0 0 0
5113 312 44 -0.75 42.004157768080084 54.20568008624249 70.98495214480205 0 0 0
5114 312 44 -0.75 43.69772898553124 51.63563411117969 67.04456127364669 0 0 0
5115 312 44 -0.75 44.46557830843597 56.31615484514967 68.62669055919572 0 0 0
5116 312 44 -0.75 48.022126273804815 55.22845009248181 65.28485499456144 0 0 0
5117 312 44 -0.75 46.59139166367049 51.03434724857735 67.60056218894425 0 0 0
5118 312 44 -0.75 46.3465869204035 53.34801818382369 72.02628218020786 0 0 0
5119 312 44 -0.75 46.5542162836903 55.48293755390425 76.54280842620221 0 0 0
5120 312 44 -0.75 46.04553691948101 54.70905213731446 71.62932222326877 0 0 0
5121 313 44 -0.75 37.38684246756245 102.04803231383954 4.662035926386378 0 0 0
5122 313 44 -0.75 37.62310621258618 99.17229438129013 8.74545493330739 0 0 0
5123 313 44 -0.75 39.85821986489739 101.81870066344644 5.139792615366943 0 0 0
5124 313 44 -0.75 43.66853806335952 104.62938523135827 6.746505871106935 0 0 0
5125 313 44 -0.75 44.207925729615525 106.17431199108997 11.471150011415897 0 0 0
5126 313 44 -0.75 44.597361855644934 2.252700470445589 15.47488898224907 0 1 0
5127 313 44 -0.75 43.335883517520145 4.756944476789002 11.335150541340631 0 1 0
5128 313 44 -0.75 39.43801370274002 7.284849865055762 9.486825555036056 0 1 0
5129 313 44 -0.75 35.81493314892145 3.8549588518803404 9.81718133034531 0 1 0
5130 313 44 -0.75 33.00888535477174 4.626719606411228 13.882950767329346 0 1 0
5131 314 44 -0.75 55.22751660364423 21.039502298063272 64.42598095239535 0 0 0
5132 314 44 -0.75 53.23904336023762 25.62388389466843 64.25445970891823 0 0 0
5133 314 44 -0.75 50.2693724358086 21.645675261190288 63.65871591405266 0 0 0
5134 314 44 -0.75 50.31700741078691 20.677469002007957 68.56384665123377 0 0 0
5135 314 44 -0.75 51.544700091839644 15.870693462890337 69.18648587054946 0 0 0
5136 314 44 -0.75 52.71200520425942 12.998877645363912 73.1095041836247 0 0 0
5137 314 44 -0.75 51.73060538183544 8.626400481574283 75.32722775537216 0 0 0
5138 314 44 -0.75 53.453168717161795 11.454126230526912 71.5806636434825 0 0 0
5139 314 44 -0.75 55.87614509936505 10.013335250946714 67.45109867796306 0 0 0
5140 314 44 -0.75 51.91291464976477 7.554543293554357 69.25308272717766 0 0 0
5141 315 44 -0.75 16.158033543761213 89.39542271426058 8.758764323836717 0 0 0
5142 315 44 -0.75 12.842582791582903 92.19968515465473 11.237453185972287 0 0 0
5143 315 44 -0.75 16.585061795781826 89.21841551583105 9.786287363690624 0 0 0
5144 315 44 -0.75 13.342948212066677 93.01256576970178 9.481126158190232 0 0 0
5145 315 44 -0.75 11.937333397118408 89.68680560889929 6.022287285849265 0 0 0
5146 315 44 -0.75 8.709233966956873 87.45638043522086 9.121412583995873 0 0 0
5147 315 44 -0.75 3.9408556654808313 88.5176243203468 10.187400290442476 0 0 0
5148 315 44 -0.75 106.00079666919922 88.9797594252036 11.389663137229597 -1 0 0
5149 315 44 -0.75 106.31387235025177 91.02705590785273 15.940548845535833 -1 0 0
5150 315 44 -0.75 104.05444141735052 91.00704199150606 20.400881938770173 -1 0 0
5151 316 44 -0.75 102.52696821800694 38.45397523289983 26.275121482913804 0 0 0
5152 316 44 -0.75 102.62742277401033 35.870149479754716 30.55457861665895 0 0 0
5153 316 44 -0.75 105.6026700117537 32.09394252209048 31.92868373897989 0 0 0
5154 316 44 -0.75 103.56100238907132 30.494416225496114 36.20338945341142 0 0 0
5155 316 44 -0.75 99.54436063823655 28.788389424105812 38.64389382718111 0 0 0
5156 316 44 -0.75 95.69969797796422 31.80061992214068 37.57383006486775 0 0 0
5157 316 44 -0.75 92.0145805816592 34.74772932654302 35.92021102351229 0 0 0
5158 316 44 -0.75 90.56518781419871 30.349812282014348 34.03405454138325 0 0 0
5159 316 44 -0.75 94.5709608291638 33.119260896398195 35.167163946897524 0 0 0
5160 316 44 -0.75 98.9756100229675 31.995093288638735 37.24930531318096 0 0 0
5161 317 44 -0.75 85.25684802474835 44.8006885894858 103.15747018325835 0 0 0
5162 317 44 -0.75 87.1482773695002 40.30256326525932 104.24804966287641 0 0 0
5163 317 44 -0.75 86.5524537994252 36.179924852903376 0.12251158926015648 0 0 1
5164 317 44 -0.75 88.9361922216844 33.92647719677216 103.24014323287219 0 0 0
5165 317 44 -0.75 91.66295027489932 37.68655739140912 101.38903884653237 0 0 0
5166 317 44 -0.75 95.10947785820076 35.187023726164924 104.01082813513915 0 0 0
5167 317 44 -0.75 100.00480497642664 34.469976492936276 103.28859848268678 0 0 0
5168 317 44 -0.75 99.70519813844734 29.570725164936654 104.2412643043315 0 0 0
5169 317 44 -0.75 103.63883214478315 32.08167826895418 106.03615650544646 0 0 0
5170 317 44 -0.75 0.6044098283903594 30.12305304232762 1.6527729049971498 1 0 1
5171 318 44 -0.75 11.593458059661812 92.50826894587493 17.538801602937543 0 0 0
5172 318 44 -0.75 13.343885244431153 95.67230547436873 14.085560007396124 0 0 0
5173 318 44 -0.75 17.893526319344687 95.64882668268255 16.159255943593273 0 0 0
5174 318 44 -0.75 17.072142796693008 99.38617382880305 12.940938771824566 0 0 0
5175 318 44 -0.75 15.216303294502834 94.7465317131951 12.768948129092136 0 0 0
5176 318 44 -0.75 16.58919655347229 94.49731466955262 7.967588429524281 0 0 0
5177 318 44 -0.75 19.789641303900982 92.24798487669534 11.081696469143019 0 0 0
5178 318 44 -0.75 19.25937200689039 87.59445492725375 12.831974584842936 0 0 0
5179 318 44 -0.75 20.45293788872897 90.19177500992846 8.7296180823135 0 0 0
5180 318 44 -0.75 21.36800641122681 94.84689571755233 10.308383674979197 0 0 0
5181 319 44 -0.75 32.130299229245296 55.97325812416385 46.96556760337266 0 0 0
5182 319 44 -0.75 31.371719758861854 60.443141194961385 44.857321289368926 0 0 0
5183 319 44 -0.75 28.279048892361338 61.61196969067353 48.60821809668184 0 0 0
5184 319 44 -0.75 28.15375388589083 66.41902946289234 49.978063893722215 0 0 0
5185 319 44 -0.75 31.398354609698508 65.2614138290109 46.35418583461758 0 0 0
5186 319 44 -0.75 26.89938513202238 63.56705677345272 47.7283866231557 0 0 0
5187 319 44 -0.75 22.630057052505105 63.23938833591715 45.14662924793852 0 0 0
5188 319 44 -0.75 18.763063731187874 62.595672619153895 42.04308406075663 0 0 0
5189 319 44 -0.75 15.4169148712954 60.72566740482764 38.83273076153348 0 0 0
5190 319 44 -0.75 19.181699336472423 62.01839556194558 41.858495432249995 0 0 0
5191 320 44 -0.75 35.819294431412395 4.933911800351237 65.76610385761818 0 0 0
5192 320 44 -0.75 36.796218422343564 2.6343526569597184 61.43509389896101 0 0 0
5193 320 44 -0.75 34.64652974844403 6.11753796984417 58.56346392951611 0 0 0
5194 320 44 -0.75 30.183774168993736 4.372060437222381 59.99074134515675 0 0 0
5195 320 44 -0.75 31.629374132222434 0.15363162977670886 57.729082851301925 0 0 0
5196 320 44 -0.75 30.05629598126017 4.667222899736591 56.26179999557605 0 0 0
5197 320 44 -0.75 33.061621828988265 3.11229144178498 52.58073972575569 0 0 0
5198 320 44 -0.75 33.6346409405965 1.0510161978840533 57.09989821673749 0 0 0
5199 320 44 -0.75 31.406785985876354 106.81679739024072 61.432346798956104 0 -1 0
5200 320 44 -0.75 33.056346350964176 3.8302234523705967 64.08430854728051 0 0 0
5201 321 44 -0.75 11.571751322826964 39.530598524046574 106.34841887491025 0 0 0
5202 321 44 -0.75 10.536793807809929 42.09768758206835 102.18441638808407 0 0 0
5203 321 44 -0.75 7.01499055506495 42.88485092352009 98.72359629411365 0 0 0
5204 321 44 -0.75 7.32815083304167 44.25063606684606 93.92395447596017 0 0 0
5205 321 44 -0.75 6.839558147469288 48.25956088283002 96.8718009793238 0 0 0
5206 321 44 -0.75 4.485093467937511 52.65198082881331 96.4678912233565 0 0 0
5207 321 44 -0.75 4.294028619861175 57.301494875364924 98.29696567639246 0 0 0
5208 321 44 -0.75 8.071386052584753 59.25541496960009 100.92636999881836 0 0 0
5209 321 44 -0.75 9.866987853365275 55.70743138514647 103.95747980505789 0 0 0
5210 321 44 -0.75 7.360197389342099 56.789890967288024 1.2548764715527767 0 0 1
5211 322 44 -0.75 42.56653912994089 90.42151857512901 89.75255800783852 0 0 0
5212 322 44 -0.75 45.20434824490502 88.1732526296797 93.3563425895727 0 0 0
5213 322 44 -0.75 43.589974334244786 89.77857695482217 97.80794125608404 0 0 0
5214 322 44 -0.75 43.58469317886713 84.82241233425837 97.14733217101966 0 0 0
5215 322 44 -0.75 44.866869877843094 86.96756665538614 92.81670452007228 0 0 0
5216 322 44 -0.75 44.69824405257867 82.1652160214704 91.43504113126045 0 0 0
5217 322 44 -0.75 45.52560872280762 87.0170943652405 92.31523670027438 0 0 0
5218 322 44 -0.75 43.21555221737523 91.3913508753968 91.58755618997833 0 0 0
5219 322 44 -0.75 46.50830540465122 94.73948791383326 89.87065350795649 0 0 0
5220 322 44 -0.75 44.13501250486803 98.5706442481296 92.03623009492351 0 0 0
5221 323 44 -0.75 27.207418025519146 26.02906462183929 24.23207182209096 0 0 0
5222 323 44 -0.75 26.89483463886113 21.10405083938036 23.42800038933452 0 0 0
5223 323 44 -0.75 30.143060326412673 17.34609059618869 22.856367033658763 0 0 0
5224 323 44 -0.75 34.428849853735706 17.661232309027767 20.300453531930458 0 0 0
5225 323 44 -0.75 29.673484783405243 17.96807656746798 21.814504273795876 0 0 0
5226 323 44 -0.75 34.130304717909404 19.834652657587355 20.52895000765189 0 0 0
5227 323 44 -0.75 38.48791605615642 22.11595485861986 19.630682958080715 0 0 0
5228 323 44 -0.75 42.692484419100595 24.802617041507556 19.952321258614198 0 0 0
5229 323 44 -0.75 47.5107135728231 23.907120642139443 18.96098175020286 0 0 0
5230 323 44 -0.75 44.81245087335952 27.156408068154033 16.284882045814584 0 0 0
5231 324 44 -0.75 6.143006517125848 64.03278205236406 100.89367385096428 0 0 0
5232 324 44 -0.75 7.747818452251776 66.55945157606125 96.8886120822899 0 0 0
5233 324 44 -0.75 9.130659437903875 69.04656695447954 92.77740691800584 0 0 0
5234 324 44 -0.75 10.358166216525134 71.16960781327839 97.13469100563536 0 0 0
5235 324 44 -0.75 12.499364865113652 67.84866582987337 100.19844894159255 0 0 0
5236 324 44 -0.75 13.472682539099587 65.19924707295611 96.07131519575856 0 0 0
5237 324 44 -0.75 10.389539398663842 61.305034804060945 95.49743438899607 0 0 0
5238 324 44 -0.75 5.868927780797554 63.43420069837887 95.67271472128033 0 0 0
5239 324 44 -0.75 6.341445698071299 59.6127914454079 92.48311315695241 0 0 0
5240 324 44 -0.75 7.703328009550943 58.56242500164008 87.78822158168836 0 0 0
5241 325 44 -0.75 44.13990364201085 63.09224240394381 26.128857230510402 0 0 0
5242 325 44 -0.75 40.99892557279627 59.56127371790917 24.49590992365821 0 0 0
5243 325 44 -0.75 44.59084325960028 56.594102600797854 22.680965601370357 0 0 0
5244 325 44 -0.75 39.77456197166136 55.26358431462227 22.498878683658287 0 0 0
5245 325 44 -0.75 39.884165971848816 59.047140192610875 19.231970071333667 0 0 0
5246 325 44 -0.75 42.5988193172808 59.901080280352126 15.120833544692477 0 0 0
5247 325 44 -0.75 46.231612742007584 59.58658776750189 11.699736294887531 0 0 0
5248 325 44 -0.75 50.707136622157805 61.80417993840277 11.927707700472153 0 0 0
5249 325 44 -0.75 55.417361555812995 61.650014368253565 13.598041215478512 0 0 0
5250 325 44 -0.75 55.30992026280792 57.767074004701726 10.44983053293878 0 0 0
5251 326 44 -0.75 52.09902814204553 44.59856812332585 69.65467895450661 0 0 0
5252 326 44 -0.75 51.30605198583296 42.62740244228258 65.12856642016153 0 0 0
5253 326 44 -0.75 55.95223586183097 44.0033380963876 63.89577427783637 0 0 0
5254 326 44 -0.75 55.064199284593656 40.67293679413975 67.51790323791971 0 0 0
5255 326 44 -0.75 55.743253991075626 38.87756607918665 72.13477758118415 0 0 0
5256 326 44 -0.75 59.41812113300387 36.10694092633872 74.08900063692333 0 0 0
5257 326 44 -0.75 56.425167403635406 34.1550405304866 77.58647298399511 0 0 0
5258 326 44 -0.75 52.00546770228058 36.23956377725308 76.52769190013771 0 0 0
5259 326 44 -0.75 48.67623075921406 39.93480897178613 76.01647342511805 0 0 0
5260 326 44 -0.75 49.97954185218623 37.178895533301215 72.05335327623108 0 0 0
5261 327 44 -0.75 6.7209473675619185 80.0160140493289 67.97082484731503 0 0 0
5262 327 44 -0.75 6.449237571783171 79.16248944435146 72.88993752498119 0 0 0
5263 327 44 -0.75 3.3905469555731957 78.48145908157103 76.78616767209522 0 0 0
5264 327 44 -0.75 4.411094062569386 77.3349204227115 81.54473181542063 0 0 0
5265 327 44 -0.75 8.182696384842425 74.13788422976114 80.80043650871093 0 0 0
5266 327 44 -0.75 4.500452582317085 73.06585040067026 84.00852379680776 0 0 0
5267 327 44 -0.75 2.35085595658055 76.21203203460107 87.24592637803528 0 0 0
5268 327 44 -0.75 1.1007086097756442 73.13659284348937 83.50710231249664 0 0 0
5269 327 44 -0.75 106.06600767237725 72.56513209127091 88.08578830450969 -1 0 0
5270 327 44 -0.75 105.52108605963527 75.8912370798543 84.392539593566 -1 0 0
5271 328 44 -0.75 104.10624213545802 56.12186583837244 103.22732683105495 0 0 0
5272 328 44 -0.75 105.67611589101129 57.809711215286214 0.7731006982870525 0 0 1
5273 328 44 -0.75 101.29201504099859 56.8322748516493 105.46786974290484 0 0 0
5274 328 44 -0.75 104.8187401422002 56.89980102946886 2.120354318473261 0 0 1
5275 328 44 -0.75 100.46749651616594 58.87234812573122 3.5953922366039137 0 0 1
5276 328 44 -0.75 101.04369117623078 53.95019667307929 4.259037315595123 0 0 1
5277 328 44 -0.75 102.66817428591798 57.3302130077794 0.9519926827694007 0 0 1
5278 328 44 -0.75 103.53651871133349 59.725897511299536 5.253931050347816 0 0 1
5279 328 44 -0.75 105.1083435916154 56.497353648352714 1.7745818194204048 0 0 1
5280 328 44 -0.75 0.672857269645533 60.2530475497341 106.46026611010296 1 0 0
5281 329 44 -0.75 100.69663978752564 5.645688287309632 24.86085967512165 0 0 0
5282 329 44 -0.75 100.87654345605729 10.058094534188085 27.205706318839926 0 0 0
5283 329 44 -0.75 100.51956481116666 10.248882939096141 22.222116645557755 0 0 0
5284 329 44 -0.75 102.77471354375645 8.042229128775267 18.34333034630189 0 0 0
5285 329 44 -0.75 100.1751698335503 5.634179847803891 14.815771536141396 0 0 0
5286 329 44 -0.75 99.39466973841763 3.0878178520594717 19.047421354844072 0 0 0
5287 329 44 -0.75 95.00042730228074 1.8617486947367092 21.09373214109224 0 0 0
5288 329 44 -0.75 99.91250335229596 2.539254728801029 21.735989451423055 0 0 0
5289 329 44 -0.75 95.4190324793622 3.467066253914708 23.722918058082648 0 0 0
5290 329 44 -0.75 90.89207273122912 5.0007983163655325 25.1906719200749 0 0 0
5291 330 44 -0.75 92.09667341612486 103.12611008139774 46.77192744541346 0 0 0
5292 330 44 -0.75 94.34995152885098 98.76002364593356 47.69930384405918 0 0 0
5293 330 44 -0.75 98.73965777275147 99.9618127346061 45.62899418639714 0 0 0
5294 330 44 -0.75 102.81133235211823 97.15977884198331 44.87396293914193 0 0 0
5295 330 44 -0.75 101.03365852306787 95.35966085395552 40.5612548587488 0 0 0
5296 330 44 -0.75 102.79043822184936 94.57829933619497 35.94571596621283 0 0 0
5297 330 44 -0.75 100.18453544635038 90.32403693634284 35.61326723655515 0 0 0
5298 330 44 -0.75 104.9944019558843 88.99447125899309 35.30111459748656 0 0 0
5299 330 44 -0.75 103.36133312640932 92.99523138592473 37.81646837080578 0 0 0
5300 330 44 -0.75 105.55842160346643 88.53086063530971 37.32433421731104 0 0 0

Bonds

1 1 1 2
2 1 2 3
3 1 3 4
4 1 4 5
5 1 5 6
6 1 6 7
7 1 7 8
8 1 8 9
9 1 9 10
10 1 10 11
11 1 11 12
12 1 12 13
13 1 13 14
14 1 14 15
15 1 15 16
16 1 16 17
17 1 17 18
18 1 18 19
19 1 19 20
20 1 20 21
21 1 21 22
22 1 22 23
23 1 23 24
24 1 24 25
25 1 25 26
26 1 26 27
27 1 27 28
28 1 28 29
29 1 29 30
30 1 30 31
31 1 31 32
32 1 32 33
33 1 33 34
34 1 34 35
35 1 35 36
36 1 36 37
37 1 37 38
38 1 38 39
39 1 39 40
40 1 40 41
41 1 41 42
42 1 42 43
43 1 43 44
44 1 44 45
45 1 45 46
46 1 46 47
47 1 47 48
48 1 48 49
49 1 49 50
50 1 51 52
51 1 52 53
52 1 53 54
53 1 54 55
54 1 55 56
55 1 56 57
56 1 57 58
57 1 58 59
58 1 59 60
59 1 60 61
60 1 61 62
61 1 62 63
62 1 63 64
63 1 64 65
64 1 65 66
65 1 66 67
66 1 67 68
67 1 68 69
68 1 69 70
69 1 70 71
70 1 71 72
71 1 72 73
72 1 73 74
73 1 74 75
74 1 75 76
75 1 76 77
76 1 77 78
77 1 78 79
78 1 79 80
79 1 80 81
80 1 81 82
81 1 82 83
82 1 83 84
83 1 84 85
84 1 85 86
85 1 86 87
86 1 87 88
87 1 88 89
88 1 89 90
89 1 90 91
90 1 91 92
91 1 92 93
92 1 93 94
93 1 94 95
94 1 95 96
95 1 96 97
96 1 97 98
97 1 98 99
98 1 99 100
99 1 101 102
100 1 102 103
101 1 103 104
102 1 104 105
103 1 105 106
104 1 106 107
105 1 107 108
106 1 108 109
107 1 109 110
108 1 110 111
109 1 111 112
110 1 112 113
111 1 113 114
112 1 114 115
113 1 115 116
114 1 116 117
115 1 117 118
116 1 118 119
117 1 119 120
118 1 120 121
119 1 121 122
120 1 122 123
121 1 123 124
122 1 124 125
123 1 125 126
124 1 126 127
125 1 127 128
126 1 128 129
127 1 129 130
128 1 130 131
129 1 131 132
130 1 132 133
131 1 133 134
132 1 134 135
133 1 135 136
134 1 136 137
135 1 137 138
136 1 138 139
137 1 139 140
138 1 140 141
139 1 141 142
140 1 142 143
141 1 143 144
142 1 144 145
143 1 145 146
144 1 146 147
145 1 147 148
146 1 148 149
147 1 149 150
148 1 151 152
149 1 152 153
150 1 153 154
151 1 154 155
152 1 155 156
153 1 156 157
154 1 157 158
155 1 158 159
156 1 159 160
157 1 160 161
158 1 161 162
159 1 162 163
160 1 163 164
161 1 164 165
162 1 165 166
163 1 166 167
164 1 167 168
165 1 168 169
166 1 169 170
167 1 170 171
168 1 171 172
169 1 172 173
170 1 173 174
171 1 174 175
172 1 175 176
173 1 176 177
174 1 177 178
175 1 178 179
176 1 179 180
177 1 180 181
178 1 181 182
179 1 182 183
180 1 183 184
181 1 184 185
182 1 185 186
183 1 186 187
184 1 187 188
185 1 188 189
186 1 189 190
187 1 190 191
188 1 191 192
189 1 192 193
190 1 193 194
191 1 194 195
192 1 195 196
193 1 196 197
194 1 197 198
195 1 198 199
196 1 199 200
197 1 201 202
198 1 202 203
199 1 203 204
200 1 204 205
201 1 205 206
202 1 206 207
203 1 207 208
204 1 208 209
205 1 209 210
206 1 210 211
207 1 211 212
208 1 212 213
209 1 213 214
210 1 214 215
211 1 215 216
212 1 216 217
213 1 217 218
214 1 218 219
215 1 219 220
216 1 220 221
217 1 221 222
218 1 222 223
219 1 223 224
220 1 224 225
221 1 225 226
222 1 226 227
223 1 227 228
224 1 228 229
225 1 229 230
226 1 230 231
227 1 231 232
228 1 232 233
229 1 233 234
230 1 234 235
231 1 235 236
232 1 236 237
233 1 237 238
234 1 238 239
235 1 239 240
236 1 240 241
237 1 241 242
238 1 242 243
239 1 243 244
240 1 244 245
241 1 245 246
242 1 246 247
243 1 247 248
244 1 248 249
245 1 249 250
246 1 251 252
247 1 252 253
248 1 253 254
249 1 254 255
250 1 255 256
251 1 256 257
252 1 257 258
253 1 258 259
254 1 259 260
255 1 260 261
256 1 261 262
257 1 262 263
258 1 263 264
259 1 264 265
260 1 265 266
261 1 266 267
262 1 267 268
263 1 268 269
264 1 269 270
265 1 270 271
266 1 271 272
267 1 272 273
268 1 273 274
269 1 274 275
270 1 275 276
271 1 276 277
272 1 277 278
273 1 278 279
274 1 279 280
275 1 280 281
276 1 281 282
277 1 282 283
278 1 283 284
279 1 284 285
280 1 285 286
281 1 286 287
282 1 287 288
283 1 288 289
284 1 289 290
285 1 290 291
286 1 291 292
287 1 292 293
288 1 293 294
289 1 294 295
290 1 295 296
291 1 296 297
292 1 297 298
293 1 298 299
294 1 299 300
295 1 301 302
296 1 302 303
297 1 303 304
298 1 304 305
299 1 305 306
300 1 306 307
301 1 307 308
302 1 308 309
303 1 309 310
304 1 310 311
305 1 311 312
306 1 312 313
307 1 313 314
308 1 314 315
309 1 315 316
310 1 316 317
311 1 317 318
312 1 318 319
313 1 319 320
314 1 320 321
315 1 321 322
316 1 322 323
317 1 323 324
318 1 324 325
319 1 325 326
320 1 326 327
321 1 327 328
322 1 328 329
323 1 329 330
324 1 330 331
325 1 331 332
326 1 332 333
327 1 333 334
328 1 334 335
329 1 335 336
330 1 336 337
331 1 337 338
332 1 338 339
333 1 339 340
334 1 340 341
335 1 341 342
336 1 342 343
337 1 343 344
338 1 344 345
339 1 345 346
340 1 346 347
341 1 347 348
342 1 348 349
343 1 349 350
344 1 351 352
345 1 352 353
346 1 353 354
347 1 354 355
348 1 355 356
349 1 356 357
350 1 357 358
351 1 358 359
352 1 359 360
353 1 360 361
354 1 361 362
355 1 362 363
356 1 363 364
357 1 364 365
358 1 365 366
359 1 366 367
360 1 367 368
361 1 368 369
362 1 369 370
363 1 370 371
364 1 371 372
365 1 372 373
366 1 373 374
367 1 374 375
368 1 375 376
369 1 376 377
370 1 377 378
371 1 378 379
372 1 379 380
373 1 380 381
374 1 381 382
375 1 382 383
376 1 383 384
377 1 384 385
378 1 385 386
379 1 386 387
380 1 387 388
381 1 388 389
382 1 389 390
383 1 390 391
384 1 391 392
385 1 392 393
386 1 393 394
387 1 394 395
388 1 395 396
389 1 396 397
390 1 397 398
391 1 398 399
392 1 399 400
393 1 401 402
394 1 402 403
395 1 403 404
396 1 404 405
397 1 405 406
398 1 406 407
399 1 407 408
400 1 408 409
401 1 409 410
402 1 410 411
403 1 411 412
404 1 412 413
405 1 413 414
406 1 414 415
407 1 415 416
408 1 416 417
409 1 417 418
410 1 418 419
411 1 419 420
412 1 420 421
413 1 421 422
414 1 422 423
415 1 423 424
416 1 424 425
417 1 425 426
418 1 426 427
419 1 427 428
420 1 428 429
421 1 429 430
422 1 430 431
423 1 431 432
424 1 432 433
425 1 433 434
426 1 434 435
427 1 435 436
428 1 436 437
429 1 437 438
430 1 438 439
431 1 439 440
432 1 440 441
433 1 441 442
434 1 442 443
435 1 443 444
436 1 444 445
437 1 445 446
438 1 446 447
439 1 447 448
440 1 448 449
441 1 449 450
442 1 451 452
443 1 452 453
444 1 453 454
445 1 454 455
446 1 455 456
447 1 456 457
448 1 457 458
449 1 458 459
450 1 459 460
451 1 460 461
452 1 461 462
453 1 462 463
454 1 463 464
455 1 464 465
456 1 465 466
457 1 466 467
458 1 467 468
459 1 468 469
460 1 469 470
461 1 470 471
462 1 471 472
463 1 472 473
464 1 473 474
465 1 474 475
466 1 475 476
467 1 476 477
468 1 477 478
469 1 478 479
470 1 479 480
471 1 480 481
472 1 481 482
473 1 482 483
474 1 483 484
475 1 484 485
476 1 485 486
477 1 486 487
478 1 487 488
479 1 488 489
480 1 489 490
481 1 490 491
482 1 491 492
483 1 492 493
484 1 493 494
485 1 494 495
486 1 495 496
487 1 496 497
488 1 497 498
489 1 498 499
490 1 499 500
491 1 501 502
492 1 502 503
493 1 503 504
494 1 504 505
495 1 505 506
496 1 506 507
497 1 507 508
498 1 508 509
499 1 509 510
500 1 510 511
501 1 511 512
502 1 512 513
503 1 513 514
504 1 514 515
505 1 515 516
506 1 516 517
507 1 517 518
508 1 518 519
509 1 519 520
510 1 520 521
511 1 521 522
512 1 522 523
513 1 523 524
514 1 524 525
515 1 525 526
516 1 526 527
517 1 527 528
518 1 528 529
519 1 529 530
520 1 530 531
521 1 531 532
522 1 532 533
523 1 533 534
524 1 534 535
525 1 535 536
526 1 536 537
527 1 537 538
528 1 538 539
529 1 539 540
530 1 540 541
531 1 541 542
532 1 542 543
533 1 543 544
534 1 544 545
535 1 545 546
536 1 546 547
537 1 547 548
538 1 548 549
539 1 549 550
540 1 551 552
541 1 552 553
542 1 553 554
543 1 554 555
544 1 555 556
545 1 556 557
546 1 557 558
547 1 558 559
548 1 559 560
549 1 560 561
550 1 561 562
551 1 562 563
552 1 563 564
553 1 564 565
554 1 565 566
555 1 566 567
556 1 567 568
557 1 568 569
558 1 569 570
559 1 570 571
560 1 571 572
561 1 572 573
562 1 573 574
563 1 574 575
564 1 575 576
565 1 576 577
566 1 577 578
567 1 578 579
568 1 579 580
569 1 580 581
570 1 581 582
571 1 582 583
572 1 583 584
573 1 584 585
574 1 585 586
575 1 586 587
576 1 587 588
577 1 588 589
578 1 589 590
579 1 590 591
580 1 591 592
581 1 592 593
582 1 593 594
583 1 594 595
584 1 595 596
585 1 596 597
586 1 597 598
587 1 598 599
588 1 599 600
589 1 601 602
590 1 602 603
591 1 603 604
592 1 604 605
593 1 605 606
594 1 606 607
595 1 607 608
596 1 608 609
597 1 609 610
598 1 610 611
599 1 611 612
600 1 612 613
601 1 613 614
602 1 614 615
603 1 615 616
604 1 616 617
605 1 617 618
606 1 618 619
607 1 619 620
608 1 620 621
609 1 621 622
610 1 622 623
611 1 623 624
612 1 624 625
613 1 625 626
614 1 626 627
615 1 627 628
616 1 628 629
617 1 629 630
618 1 630 631
619 1 631 632
620 1 632 633
621 1 633 634
622 1 634 635
623 1 635 636
624 1 636 637
625 1 637 638
626 1 638 639
627 1 639 640
628 1 640 641
629 1 641 642
630 1 642 643
631 1 643 644
632 1 644 645
633 1 645 646
634 1 646 647
635 1 647 648
636 1 648 649
637 1 649 650
638 1 651 652
639 1 652 653
640 1 653 654
641 1 654 655
642 1 655 656
643 1 656 657
644 1 657 658
645 1 658 659
646 1 659 660
647 1 660 661
648 1 661 662
649 1 662 663
650 1 663 664
651 1 664 665
652 1 665 666
653 1 666 667
654 1 667 668
655 1 668 669
656 1 669 670
657 1 670 671
658 1 671 672
659 1 672 673
660 1 673 674
661 1 674 675
662 1 675 676
663 1 676 677
664 1 677 678
665 1 678 679
666 1 679 680
667 1 680 681
668 1 681 682
669 1 682 683
670 1 683 684
671 1 684 685
672 1 685 686
673 1 686 687
674 1 687 688
675 1 688 689
676 1 689 690
677 1 690 691
678 1 691 692
679 1 692 693
680 1 693 694
681 1 694 695
682 1 695 696
683 1 696 697
684 1 697 698
685 1 698 699
686 1 699 700
687 1 701 702
688 1 702 703
689 1 703 704
690 1 704 705
691 1 705 706
692 1 706 707
693 1 707 708
694 1 708 709
695 1 709 710
696 1 710 711
697 1 711 712
698 1 712 713
699 1 713 714
700 1 714 715
701 1 715 716
702 1 716 717
703 1 717 718
704 1 718 719
705 1 719 720
706 1 720 721
707 1 721 722
708 1 722 723
709 1 723 724
710 1 724 725
711 1 725 726
712 1 726 727
713 1 727 728
714 1 728 729
715 1 729 730
716 1 730 731
717 1 731 732
718 1 732 733
719 1 733 734
720 1 734 735
721 1 735 736
722 1 736 737
723 1 737 738
724 1 738 739
725 1 739 740
726 1 740 741
727 1 741 742
728 1 742 743
729 1 743 744
730 1 744 745
731 1 745 746
732 1 746 747
733 1 747 748
734 1 748 749
735 1 749 750
736 1 751 752
737 1 752 753
738 1 753 754
739 1 754 755
740 1 755 756
741 1 756 757
742 1 757 758
743 1 758 759
744 1 759 760
745 1 760 761
746 1 761 762
747 1 762 763
748 1 763 764
749 1 764 765
750 1 765 766
751 1 766 767
752 1 767 768
753 1 768 769
754 1 769 770
755 1 770 771
756 1 771 772
757 1 772 773
758 1 773 774
759 1 774 775
760 1 775 776
761 1 776 777
762 1 777 778
763 1 778 779
764 1 779 780
765 1 780 781
766 1 781 782
767 1 782 783
768 1 783 784
769 1 784 785
770 1 785 786
771 1 786 787
772 1 787 788
773 1 788 789
774 1 789 790
775 1 790 791
776 1 791 792
777 1 792 793
778 1 793 794
779 1 794 795
780 1 795 796
781 1 796 797
782 1 797 798
783 1 798 799
784 1 799 800
785 1 801 802
786 1 802 803
787 1 803 804
788 1 804 805
789 1 805 806
790 1 806 807
791 1 807 808
792 1 808 809
793 1 809 810
794 1 810 811
795 1 811 812
796 1 812 813
797 1 813 814
798 1 814 815
799 1 815 816
800 1 816 817
801 1 817 818
802 1 818 819
803 1 819 820
804 1 820 821
805 1 821 822
806 1 822 823
807 1 823 824
808 1 824 825
809 1 825 826
810 1 826 827
811 1 827 828
812 1 828 829
813 1 829 830
814 1 830 831
815 1 831 832
816 1 832 833
817 1 833 834
818 1 834 835
819 1 835 836
820 1 836 837
821 1 837 838
822 1 838 839
823 1 839 840
824 1 840 841
825 1 841 842
826 1 842 843
827 1 843 844
828 1 844 845
829 1 845 846
830 1 846 847
831 1 847 848
832 1 848 849
833 1 849 850
834 1 851 852
835 1 852 853
836 1 853 854
837 1 854 855
838 1 855 856
839 1 856 857
840 1 857 858
841 1 858 859
842 1 859 860
843 1 860 861
844 1 861 862
845 1 862 863
846 1 863 864
847 1 864 865
848 1 865 866
849 1 866 867
850 1 867 868
851 1 868 869
852 1 869 870
853 1 870 871
854 1 871 872
855 1 872 873
856 1 873 874
857 1 874 875
858 1 875 876
859 1 876 877
860 1 877 878
861 1 878 879
862 1 879 880
863 1 880 881
864 1 881 882
865 1 882 883
866 1 883 884
867 1 884 885
868 1 885 886
869 1 886 887
870 1 887 888
871 1 888 889
872 1 889 890
873 1 890 891
874 1 891 892
875 1 892 893
876 1 893 894
877 1 894 895
878 1 895 896
879 1 896 897
880 1 897 898
881 1 898 899
882 1 899 900
883 1 901 902
884 1 902 903
885 1 903 904
886 1 904 905
887 1 905 906
888 1 906 907
889 1 907 908
890 1 908 909
891 1 909 910
892 1 910 911
893 1 911 912
894 1 912 913
895 1 913 914
896 1 914 915
897 1 915 916
898 1 916 917
899 1 917 918
900 1 918 919
901 1 919 920
902 1 920 921
903 1 921 922
904 1 922 923
905 1 923 924
906 1 924 925
907 1 925 926
908 1 926 927
909 1 927 928
910 1 928 929
911 1 929 930
912 1 930 931
913 1 931 932
914 1 932 933
915 1 933 934
916 1 934 935
917 1 935 936
918 1 936 937
919 1 937 938
920 1 938 939
921 1 939 940
922 1 940 941
923 1 941 942
924 1 942 943
925 1 943 944
926 1 944 945
927 1 945 946
928 1 946 947
929 1 947 948
930 1 948 949
931 1 949 950
932 1 951 952
933 1 952 953
934 1 953 954
935 1 954 955
936 1 955 956
937 1 956 957
938 1 957 958
939 1 958 959
940 1 959 960
941 1 960 961
942 1 961 962
943 1 962 963
944 1 963 964
945 1 964 965
946 1 965 966
947 1 966 967
948 1 967 968
949 1 968 969
950 1 969 970
951 1 970 971
952 1 971 972
953 1 972 973
954 1 973 974
955 1 974 975
956 1 975 976
957 1 976 977
958 1 977 978
959 1 978 979
960 1 979 980
961 1 980 981
962 1 981 982
963 1 982 983
964 1 983 984
965 1 984 985
966 1 985 986
967 1 986 987
968 1 987 988
969 1 988 989
970 1 989 990
971 1 990 991
972 1 991 992
973 1 992 993
974 1 993 994
975 1 994 995
976 1 995 996
977 1 996 997
978 1 997 998
979 1 998 999
980 1 999 1000
981 1 1001 1002
982 1 1002 1003
983 1 1003 1004
984 1 1004 1005
985 1 1005 1006
986 1 1006 1007
987 1 1007 1008
988 1 1008 1009
989 1 1009 1010
990 1 1010 1011
991 1 1011 1012
992 1 1012 1013
993 1 1013 1014
994 1 1014 1015
995 1 1015 1016
996 1 1016 1017
997 1 1017 1018
998 1 1018 1019
999 1 1019 1020
1000 1 1020 1021
1001 1 1021 1022
1002 1 1022 1023
1003 1 1023 1024
1004 1 1024 1025
1005 1 1025 1026
1006 1 1026 1027
1007 1 1027 1028
1008 1 1028 1029
1009 1 1029 1030
1010 1 1030 1031
1011 1 1031 1032
1012 1 1032 1033
1013 1 1033 1034
1014 1 1034 1035
1015 1 1035 1036
1016 1 1036 1037
1017 1 1037 1038
1018 1 1038 1039
1019 1 1039 1040
1020 1 1040 1041
1021 1 1041 1042
1022 1 1042 1043
1023 1 1043 1044
1024 1 1044 1045
1025 1 1045 1046
1026 1 1046 1047
1027 1 1047 1048
1028 1 1048 1049
1029 1 1049 1050
1030 1 1051 1052
1031 1 1052 1053
1032 1 1053 1054
1033 1 1054 1055
1034 1 1055 1056
1035 1 1056 1057
1036 1 1057 1058
1037 1 1058 1059
1038 1 1059 1060
1039 1 1060 1061
1040 1 1061 1062
1041 1 1062 1063
1042 1 1063 1064
1043 1 1064 1065
1044 1 1065 1066
1045 1 1066 1067
1046 1 1067 1068
1047 1 1068 1069
1048 1 1069 1070
1049 1 1070 1071
1050 1 1071 1072
1051 1 1072 1073
1052 1 1073 1074
1053 1 1074 1075
1054 1 1075 1076
1055 1 1076 1077
1056 1 1077 1078
1057 1 1078 1079
1058 1 1079 1080
1059 1 1080 1081
1060 1 1081 1082
1061 1 1082 1083
1062 1 1083 1084
1063 1 1084 1085
1064 1 1085 1086
1065 1 1086 1087
1066 1 1087 1088
1067 1 1088 1089
1068 1 1089 1090
1069 1 1090 1091
1070 1 1091 1092
1071 1 1092 1093
1072 1 1093 1094
1073 1 1094 1095
1074 1 1095 1096
1075 1 1096 1097
1076 1 1097 1098
1077 1 1098 1099
1078 1 1099 1100
1079 1 1101 1102
1080 1 1102 1103
1081 1 1103 1104
1082 1 1104 1105
1083 1 1105 1106
1084 1 1106 1107
1085 1 1107 1108
1086 1 1108 1109
1087 1 1109 1110
1088 1 1110 1111
1089 1 1111 1112
1090 1 1112 1113
1091 1 1113 1114
1092 1 1114 1115
1093 1 1115 1116
1094 1 1116 1117
1095 1 1117 1118
1096 1 1118 1119
1097 1 1119 1120
1098 1 1120 1121
1099 1 1121 1122
1100 1 1122 1123
1101 1 1123 1124
1102 1 1124 1125
1103 1 1125 1126
1104 1 1126 1127
1105 1 1127 1128
1106 1 1128 1129
1107 1 1129 1130
1108 1 1130 1131
1109 1 1131 1132
1110 1 1132 1133
1111 1 1133 1134
1112 1 1134 1135
1113 1 1135 1136
1114 1 1136 1137
1115 1 1137 1138
1116 1 1138 1139
1117 1 1139 1140
1118 1 1140 1141
1119 1 1141 1142
1120 1 1142 1143
1121 1 1143 1144
1122 1 1144 1145
1123 1 1145 1146
1124 1 1146 1147
1125 1 1147 1148
1126 1 1148 1149
1127 1 1149 1150
1128 1 1151 1152
1129 1 1152 1153
1130 1 1153 1154
1131 1 1154 1155
1132 1 1155 1156
1133 1 1156 1157
1134 1 1157 1158
1135 1 1158 1159
1136 1 1159 1160
1137 1 1160 1161
1138 1 1161 1162
1139 1 1162 1163
1140 1 1163 1164
1141 1 1164 1165
1142 1 1165 1166
1143 1 1166 1167
1144 1 1167 1168
1145 1 1168 1169
1146 1 1169 1170
1147 1 1170 1171
1148 1 1171 1172
1149 1 1172 1173
1150 1 1173 1174
1151 1 1174 1175
1152 1 1175 1176
1153 1 1176 1177
1154 1 1177 1178
1155 1 1178 1179
1156 1 1179 1180
1157 1 1180 1181
1158 1 1181 1182
1159 1 1182 1183
1160 1 1183 1184
1161 1 1184 1185
1162 1 1185 1186
1163 1 1186 1187
1164 1 1187 1188
1165 1 1188 1189
1166 1 1189 1190
1167 1 1190 1191
1168 1 1191 1192
1169 1 1192 1193
1170 1 1193 1194
1171 1 1194 1195
1172 1 1195 1196
1173 1 1196 1197
1174 1 1197 1198
1175 1 1198 1199
1176 1 1199 1200
1177 1 1201 1202
1178 1 1202 1203
1179 1 1203 1204
1180 1 1204 1205
1181 1 1205 1206
1182 1 1206 1207
1183 1 1207 1208
1184 1 1208 1209
1185 1 1209 1210
1186 1 1210 1211
1187 1 1211 1212
1188 1 1212 1213
1189 1 1213 1214
1190 1 1214 1215
1191 1 1215 1216
1192 1 1216 1217
1193 1 1217 1218
1194 1 1218 1219
1195 1 1219 1220
1196 1 1220 1221
1197 1 1221 1222
1198 1 1222 1223
1199 1 1223 1224
1200 1 1224 1225
1201 1 1225 1226
1202 1 1226 1227
1203 1 1227 1228
1204 1 1228 1229
1205 1 1229 1230
1206 1 1230 1231
1207 1 1231 1232
1208 1 1232 1233
1209 1 1233 1234
1210 1 1234 1235
1211 1 1235 1236
1212 1 1236 1237
1213 1 1237 1238
1214 1 1238 1239
1215 1 1239 1240
1216 1 1240 1241
1217 1 1241 1242
1218 1 1242 1243
1219 1 1243 1244
1220 1 1244 1245
1221 1 1245 1246
1222 1 1246 1247
1223 1 1247 1248
1224 1 1248 1249
1225 1 1249 1250
1226 1 1251 1252
1227 1 1252 1253
1228 1 1253 1254
1229 1 1254 1255
1230 1 1255 1256
1231 1 1256 1257
1232 1 1257 1258
1233 1 1258 1259
1234 1 1259 1260
1235 1 1260 1261
1236 1 1261 1262
1237 1 1262 1263
1238 1 1263 1264
1239 1 1264 1265
1240 1 1265 1266
1241 1 1266 1267
1242 1 1267 1268
1243 1 1268 1269
1244 1 1269 1270
1245 1 1270 1271
1246 1 1271 1272
1247 1 1272 1273
1248 1 1273 1274
1249 1 1274 1275
1250 1 1275 1276
1251 1 1276 1277
1252 1 1277 1278
1253 1 1278 1279
1254 1 1279 1280
1255 1 1280 1281
1256 1 1281 1282
1257 1 1282 1283
1258 1 1283 1284
1259 1 1284 1285
1260 1 1285 1286
1261 1 1286 1287
1262 1 1287 1288
1263 1 1288 1289
1264 1 1289 1290
1265 1 1290 1291
1266 1 1291 1292
1267 1 1292 1293
1268 1 1293 1294
1269 1 1294 1295
1270 1 1295 1296
1271 1 1296 1297
1272 1 1297 1298
1273 1 1298 1299
1274 1 1299 1300
1275 1 1301 1302
1276 1 1302 1303
1277 1 1303 1304
1278 1 1304 1305
1279 1 1305 1306
1280 1 1306 1307
1281 1 1307 1308
1282 1 1308 1309
1283 1 1309 1310
1284 1 1310 1311
1285 1 1311 1312
1286 1 1312 1313
1287 1 1313 1314
1288 1 1314 1315
1289 1 1315 1316
1290 1 1316 1317
1291 1 1317 1318
1292 1 1318 1319
1293 1 1319 1320
1294 1 1320 1321
1295 1 1321 1322
1296 1 1322 1323
1297 1 1323 1324
1298 1 1324 1325
1299 1 1325 1326
1300 1 1326 1327
1301 1 1327 1328
1302 1 1328 1329
1303 1 1329 1330
1304 1 1330 1331
1305 1 1331 1332
1306 1 1332 1333
1307 1 1333 1334
1308 1 1334 1335
1309 1 1335 1336
1310 1 1336 1337
1311 1 1337 1338
1312 1 1338 1339
1313 1 1339 1340
1314 1 1340 1341
1315 1 1341 1342
1316 1 1342 1343
1317 1 1343 1344
1318 1 1344 1345
1319 1 1345 1346
1320 1 1346 1347
1321 1 1347 1348
1322 1 1348 1349
1323 1 1349 1350
1324 1 1351 1352
1325 1 1352 1353
1326 1 1353 1354
1327 1 1354 1355
1328 1 1355 1356
1329 1 1356 1357
1330 1 1357 1358
1331 1 1358 1359
1332 1 1359 1360
1333 1 1360 1361
1334 1 1361 1362
1335 1 1362 1363
1336 1 1363 1364
1337 1 1364 1365
1338 1 1365 1366
1339 1 1366 1367
1340 1 1367 1368
1341 1 1368 1369
1342 1 1369 1370
1343 1 1370 1371
1344 1 1371 1372
1345 1 1372 1373
1346 1 1373 1374
1347 1 1374 1375
1348 1 1375 1376
1349 1 1376 1377
1350 1 1377 1378
1351 1 1378 1379
1352 1 1379 1380
1353 1 1380 1381
1354 1 1381 1382
1355 1 1382 1383
1356 1 1383 1384
1357 1 1384 1385
1358 1 1385 1386
1359 1 1386 1387
1360 1 1387 1388
1361 1 1388 1389
1362 1 1389 1390
1363 1 1390 1391
1364 1 1391 1392
1365 1 1392 1393
1366 1 1393 1394
1367 1 1394 1395
1368 1 1395 1396
1369 1 1396 1397
1370 1 1397 1398
1371 1 1398 1399
1372 1 1399 1400
1373 1 1401 1402
1374 1 1402 1403
1375 1 1403 1404
1376 1 1404 1405
1377 1 1405 1406
1378 1 1406 1407
1379 1 1407 1408
1380 1 1408 1409
1381 1 1409 1410
1382 1 1410 1411
1383 1 1411 1412
1384 1 1412 1413
1385 1 1413 1414
1386 1 1414 1415
1387 1 1415 1416
1388 1 1416 1417
1389 1 1417 1418
1390 1 1418 1419
1391 1 1419 1420
1392 1 1420 1421
1393 1 1421 1422
1394 1 1422 1423
1395 1 1423 1424
1396 1 1424 1425
1397 1 1425 1426
1398 1 1426 1427
1399 1 1427 1428
1400 1 1428 1429
1401 1 1429 1430
1402 1 1430 1431
1403 1 1431 1432
1404 1 1432 1433
1405 1 1433 1434
1406 1 1434 1435
1407 1 1435 1436
1408 1 1436 1437
1409 1 1437 1438
1410 1 1438 1439
1411 1 1439 1440
1412 1 1440 1441
1413 1 1441 1442
1414 1 1442 1443
1415 1 1443 1444
1416 1 1444 1445
1417 1 1445 1446
1418 1 1446 1447
1419 1 1447 1448
1420 1 1448 1449
1421 1 1449 1450
1422 1 1451 1452
1423 1 1452 1453
1424 1 1453 1454
1425 1 1454 1455
1426 1 1455 1456
1427 1 1456 1457
1428 1 1457 1458
1429 1 1458 1459
1430 1 1459 1460
1431 1 1460 1461
1432 1 1461 1462
1433 1 1462 1463
1434 1 1463 1464
1435 1 1464 1465
1436 1 1465 1466
1437 1 1466 1467
1438 1 1467 1468
1439 1 1468 1469
1440 1 1469 1470
1441 1 1470 1471
1442 1 1471 1472
1443 1 1472 1473
1444 1 1473 1474
1445 1 1474 1475
1446 1 1475 1476
1447 1 1476 1477
1448 1 1477 1478
1449 1 1478 1479
1450 1 1479 1480
1451 1 1480 1481
1452 1 1481 1482
1453 1 1482 1483
1454 1 1483 1484
1455 1 1484 1485
1456 1 1485 1486
1457 1 1486 1487
1458 1 1487 1488
1459 1 1488 1489
1460 1 1489 1490
1461 1 1490 1491
1462 1 1491 1492
1463 1 1492 1493
1464 1 1493 1494
1465 1 1494 1495
1466 1 1495 1496
1467 1 1496 1497
1468 1 1497 1498
1469 1 1498 1499
1470 1 1499 1500
1471 1 1501 1502
1472 1 1502 1503
1473 1 1503 1504
1474 1 1504 1505
1475 1 1505 1506
1476 1 1506 1507
1477 1 1507 1508
1478 1 1508 1509
1479 1 1509 1510
1480 1 1510 1511
1481 1 1511 1512
1482 1 1512 1513
1483 1 1513 1514
1484 1 1514 1515
1485 1 1515 1516
1486 1 1516 1517
1487 1 1517 1518
1488 1 1518 1519
1489 1 1519 1520
1490 1 1520 1521
1491 1 1521 1522
1492 1 1522 1523
1493 1 1523 1524
1494 1 1524 1525
1495 1 1525 1526
1496 1 1526 1527
1497 1 1527 1528
1498 1 1528 1529
1499 1 1529 1530
1500 1 1530 1531
1501 1 1531 1532
1502 1 1532 1533
1503 1 1533 1534
1504 1 1534 1535
1505 1 1535 1536
1506 1 1536 1537
1507 1 1537 1538
1508 1 1538 1539
1509 1 1539 1540
1510 1 1540 1541
1511 1 1541 1542
1512 1 1542 1543
1513 1 1543 1544
1514 1 1544 1545
1515 1 1545 1546
1516 1 1546 1547
1517 1 1547 1548
1518 1 1548 1549
1519 1 1549 1550
1520 1 1551 1552
1521 1 1552 1553
1522 1 1553 1554
1523 1 1554 1555
1524 1 1555 1556
1525 1 1556 1557
1526 1 1557 1558
1527 1 1558 1559
1528 1 1559 1560
1529 1 1560 1561
1530 1 1561 1562
1531 1 1562 1563
1532 1 1563 1564
1533 1 1564 1565
1534 1 1565 1566
1535 1 1566 1567
1536 1 1567 1568
1537 1 1568 1569
1538 1 1569 1570
1539 1 1570 1571
1540 1 1571 1572
1541 1 1572 1573
1542 1 1573 1574
1543 1 1574 1575
1544 1 1575 1576
1545 1 1576 1577
1546 1 1577 1578
1547 1 1578 1579
1548 1 1579 1580
1549 1 1580 1581
1550 1 1581 1582
1551 1 1582 1583
1552 1 1583 1584
1553 1 1584 1585
1554 1 1585 1586
1555 1 1586 1587
1556 1 1587 1588
1557 1 1588 1589
1558 1 1589 1590
1559 1 1590 1591
1560 1 1591 1592
1561 1 1592 1593
1562 1 1593 1594
1563 1 1594 1595
1564 1 1595 1596
1565 1 1596 1597
1566 1 1597 1598
1567 1 1598 1599
1568 1 1599 1600
1569 1 1601 1602
1570 1 1602 1603
1571 1 1603 1604
1572 1 1604 1605
1573 1 1605 1606
1574 1 1606 1607
1575 1 1607 1608
1576 1 1608 1609
1577 1 1609 1610
1578 1 1610 1611
1579 1 1611 1612
1580 1 1612 1613
1581 1 1613 1614
1582 1 1614 1615
1583 1 1615 1616
1584 1 1616 1617
1585 1 1617 1618
1586 1 1618 1619
1587 1 1619 1620
1588 1 1620 1621
1589 1 1621 1622
1590 1 1622 1623
1591 1 1623 1624
1592 1 1624 1625
1593 1 1625 1626
1594 1 1626 1627
1595 1 1627 1628
1596 1 1628 1629
1597 1 1629 1630
1598 1 1630 1631
1599 1 1631 1632
1600 1 1632 1633
1601 1 1633 1634
1602 1 1634 1635
1603 1 1635 1636
1604 1 1636 1637
1605 1 1637 1638
1606 1 1638 1639
1607 1 1639 1640
1608 1 1640 1641
1609 1 1641 1642
1610 1 1642 1643
1611 1 1643 1644
1612 1 1644 1645
1613 1 1645 1646
1614 1 1646 1647
1615 1 1647 1648
1616 1 1648 1649
1617 1 1649 1650
1618 1 1651 1652
1619 1 1652 1653
1620 1 1653 1654
1621 1 1654 1655
1622 1 1655 1656
1623 1 1656 1657
1624 1 1657 1658
1625 1 1658 1659
1626 1 1659 1660
1627 1 1660 1661
1628 1 1661 1662
1629 1 1662 1663
1630 1 1663 1664
1631 1 1664 1665
1632 1 1665 1666
1633 1 1666 1667
1634 1 1667 1668
1635 1 1668 1669
1636 1 1669 1670
1637 1 1670 1671
1638 1 1671 1672
1639 1 1672 1673
1640 1 1673 1674
1641 1 1674 1675
1642 1 1675 1676
1643 1 1676 1677
1644 1 1677 1678
1645 1 1678 1679
1646 1 1679 1680
1647 1 1680 1681
1648 1 1681 1682
1649 1 1682 1683
1650 1 1683 1684
1651 1 1684 1685
1652 1 1685 1686
1653 1 1686 1687
1654 1 1687 1688
1655 1 1688 1689
1656 1 1689 1690
1657 1 1690 1691
1658 1 1691 1692
1659 1 1692 1693
1660 1 1693 1694
1661 1 1694 1695
1662 1 1695 1696
1663 1 1696 1697
1664 1 1697 1698
1665 1 1698 1699
1666 1 1699 1700
1667 1 1701 1702
1668 1 1702 1703
1669 1 1703 1704
1670 1 1704 1705
1671 1 1705 1706
1672 1 1706 1707
1673 1 1707 1708
1674 1 1708 1709
1675 1 1709 1710
1676 1 1710 1711
1677 1 1711 1712
1678 1 1712 1713
1679 1 1713 1714
1680 1 1714 1715
1681 1 1715 1716
1682 1 1716 1717
1683 1 1717 1718
1684 1 1718 1719
1685 1 1719 1720
1686 1 1720 1721
1687 1 1721 1722
1688 1 1722 1723
1689 1 1723 1724
1690 1 1724 1725
1691 1 1725 1726
1692 1 1726 1727
1693 1 1727 1728
1694 1 1728 1729
1695 1 1729 1730
1696 1 1730 1731
1697 1 1731 1732
1698 1 1732 1733
1699 1 1733 1734
1700 1 1734 1735
1701 1 1735 1736
1702 1 1736 1737
1703 1 1737 1738
1704 1 1738 1739
1705 1 1739 1740
1706 1 1740 1741
1707 1 1741 1742
1708 1 1742 1743
1709 1 1743 1744
1710 1 1744 1745
1711 1 1745 1746
1712 1 1746 1747
1713 1 1747 1748
1714 1 1748 1749
1715 1 1749 1750
1716 1 1751 1752
1717 1 1752 1753
1718 1 1753 1754
1719 1 1754 1755
1720 1 1755 1756
1721 1 1756 1757
1722 1 1757 1758
1723 1 1758 1759
1724 1 1759 1760
1725 1 1760 1761
1726 1 1761 1762
1727 1 1762 1763
1728 1 1763 1764
1729 1 1764 1765
1730 1 1765 1766
1731 1 1766 1767
1732 1 1767 1768
1733 1 1768 1769
1734 1 1769 1770
1735 1 1770 1771
1736 1 1771 1772
1737 1 1772 1773
1738 1 1773 1774
1739 1 1774 1775
1740 1 1775 1776
1741 1 1776 1777
1742 1 1777 1778
1743 1 1778 1779
1744 1 1779 1780
1745 1 1780 1781
1746 1 1781 1782
1747 1 1782 1783
1748 1 1783 1784
1749 1 1784 1785
1750 1 1785 1786
1751 1 1786 1787
1752 1 1787 1788
1753 1 1788 1789
1754 1 1789 1790
1755 1 1790 1791
1756 1 1791 1792
1757 1 1792 1793
1758 1 1793 1794
1759 1 1794 1795
1760 1 1795 1796
1761 1 1796 1797
1762 1 1797 1798
1763 1 1798 1799
1764 1 1799 1800
1765 1 1801 1802
1766 1 1802 1803
1767 1 1803 1804
1768 1 1804 1805
1769 1 1805 1806
1770 1 1806 1807
1771 1 1807 1808
1772 1 1808 1809
1773 1 1809 1810
1774 1 1810 1811
1775 1 1811 1812
1776 1 1812 1813
1777 1 1813 1814
1778 1 1814 1815
1779 1 1815 1816
1780 1 1816 1817
1781 1 1817 1818
1782 1 1818 1819
1783 1 1819 1820
1784 1 1820 1821
1785 1 1821 1822
1786 1 1822 1823
1787 1 1823 1824
1788 1 1824 1825
1789 1 1825 1826
1790 1 1826 1827
1791 1 1827 1828
1792 1 1828 1829
1793 1 1829 1830
1794 1 1830 1831
1795 1 1831 1832
1796 1 1832 1833
1797 1 1833 1834
1798 1 1834 1835
1799 1 1835 1836
1800 1 1836 1837
1801 1 1837 1838
1802 1 1838 1839
1803 1 1839 1840
1804 1 1840 1841
1805 1 1841 1842
1806 1 1842 1843
1807 1 1843 1844
1808 1 1844 1845
1809 1 1845 1846
1810 1 1846 1847
1811 1 1847 1848
1812 1 1848 1849
1813 1 1849 1850
1814 1 1851 1852
1815 1 1852 1853
1816 1 1853 1854
1817 1 1854 1855
1818 1 1855 1856
1819 1 1856 1857
1820 1 1857 1858
1821 1 1858 1859
1822 1 1859 1860
1823 1 1860 1861
1824 1 1861 1862
1825 1 1862 1863
1826 1 1863 1864
1827 1 1864 1865
1828 1 1865 1866
1829 1 1866 1867
1830 1 1867 1868
1831 1 1868 1869
1832 1 1869 1870
1833 1 1870 1871
1834 1 1871 1872
1835 1 1872 1873
1836 1 1873 1874
1837 1 1874 1875
1838 1 1875 1876
1839 1 1876 1877
1840 1 1877 1878
1841 1 1878 1879
1842 1 1879 1880
1843 1 1880 1881
1844 1 1881 1882
1845 1 1882 1883
1846 1 1883 1884
1847 1 1884 1885
1848 1 1885 1886
1849 1 1886 1887
1850 1 1887 1888
1851 1 1888 1889
1852 1 1889 1890
1853 1 1890 1891
1854 1 1891 1892
1855 1 1892 1893
1856 1 1893 1894
1857 1 1894 1895
1858 1 1895 1896
1859 1 1896 1897
1860 1 1897 1898
1861 1 1898 1899
1862 1 1899 1900
1863 1 1901 1902
1864 1 1902 1903
1865 1 1903 1904
1866 1 1904 1905
1867 1 1905 1906
1868 1 1906 1907
1869 1 1907 1908
1870 1 1908 1909
1871 1 1909 1910
1872 1 1910 1911
1873 1 1911 1912
1874 1 1912 1913
1875 1 1913 1914
1876 1 1914 1915
1877 1 1915 1916
1878 1 1916 1917
1879 1 1917 1918
1880 1 1918 1919
1881 1 1919 1920
1882 1 1920 1921
1883 1 1921 1922
1884 1 1922 1923
1885 1 1923 1924
1886 1 1924 1925
1887 1 1925 1926
1888 1 1926 1927
1889 1 1927 1928
1890 1 1928 1929
1891 1 1929 1930
1892 1 1930 1931
1893 1 1931 1932
1894 1 1932 1933
1895 1 1933 1934
1896 1 1934 1935
1897 1 1935 1936
1898 1 1936 1937
1899 1 1937 1938
1900 1 1938 1939
1901 1 1939 1940
1902 1 1940 1941
1903 1 1941 1942
1904 1 1942 1943
1905 1 1943 1944
1906 1 1944 1945
1907 1 1945 1946
1908 1 1946 1947
1909 1 1947 1948
1910 1 1948 1949
1911 1 1949 1950
1912 1 1951 1952
1913 1 1952 1953
1914 1 1953 1954
1915 1 1954 1955
1916 1 1955 1956
1917 1 1956 1957
1918 1 1957 1958
1919 1 1958 1959
1920 1 1959 1960
1921 1 1960 1961
1922 1 1961 1962
1923 1 1962 1963
1924 1 1963 1964
1925 1 1964 1965
1926 1 1965 1966
1927 1 1966 1967
1928 1 1967 1968
1929 1 1968 1969
1930 1 1969 1970
1931 1 1970 1971
1932 1 1971 1972
1933 1 1972 1973
1934 1 1973 1974
1935 1 1974 1975
1936 1 1975 1976
1937 1 1976 1977
1938 1 1977 1978
1939 1 1978 1979
1940 1 1979 1980
1941 1 1980 1981
1942 1 1981 1982
1943 1 1982 1983
1944 1 1983 1984
1945 1 1984 1985
1946 1 1985 1986
1947 1 1986 1987
1948 1 1987 1988
1949 1 1988 1989
1950 1 1989 1990
1951 1 1990 1991
1952 1 1991 1992
1953 1 1992 1993
1954 1 1993 1994
1955 1 1994 1995
1956 1 1995 1996
1957 1 1996 1997
1958 1 1997 1998
1959 1 1998 1999
1960 1 1999 2000
1961 1 2001 2002
1962 1 2002 2003
1963 1 2003 2004
1964 1 2004 2005
1965 1 2005 2006
1966 1 2006 2007
1967 1 2007 2008
1968 1 2008 2009
1969 1 2009 2010
1970 1 2010 2011
1971 1 2011 2012
1972 1 2012 2013
1973 1 2013 2014
1974 1 2014 2015
1975 1 2015 2016
1976 1 2016 2017
1977 1 2017 2018
1978 1 2018 2019
1979 1 2019 2020
1980 1 2020 2021
1981 1 2021 2022
1982 1 2022 2023
1983 1 2023 2024
1984 1 2024 2025
1985 1 2025 2026
1986 1 2026 2027
1987 1 2027 2028
1988 1 2028 2029
1989 1 2029 2030
1990 1 2030 2031
1991 1 2031 2032
1992 1 2032 2033
1993 1 2033 2034
1994 1 2034 2035
1995 1 2035 2036
1996 1 2036 2037
1997 1 2037 2038
1998 1 2038 2039
1999 1 2039 2040
2000 1 2040 2041
2001 1 2041 2042
2002 1 2042 2043
2003 1 2043 2044
2004 1 2044 2045
2005 1 2045 2046
2006 1 2046 2047
2007 1 2047 2048
2008 1 2048 2049
2009 1 2049 2050
2010 1 2051 2052
2011 1 2052 2053
2012 1 2053 2054
2013 1 2054 2055
2014 1 2055 2056
2015 1 2056 2057
2016 1 2057 2058
2017 1 2058 2059
2018 1 2059 2060
2019 1 2060 2061
2020 1 2061 2062
2021 1 2062 2063
2022 1 2063 2064
2023 1 2064 2065
2024 1 2065 2066
2025 1 2066 2067
2026 1 2067 2068
2027 1 2068 2069
2028 1 2069 2070
2029 1 2070 2071
2030 1 2071 2072
2031 1 2072 2073
2032 1 2073 2074
2033 1 2074 2075
2034 1 2075 2076
2035 1 2076 2077
2036 1 2077 2078
2037 1 2078 2079
2038 1 2079 2080
2039 1 2080 2081
2040 1 2081 2082
2041 1 2082 2083
2042 1 2083 2084
2043 1 2084 2085
2044 1 2085 2086
2045 1 2086 2087
2046 1 2087 2088
2047 1 2088 2089
2048 1 2089 2090
2049 1 2090 2091
2050 1 2091 2092
2051 1 2092 2093
2052 1 2093 2094
2053 1 2094 2095
2054 1 2095 2096
2055 1 2096 2097
2056 1 2097 2098
2057 1 2098 2099
2058 1 2099 2100
2059 1 2101 2102
2060 1 2102 2103
2061 1 2103 2104
2062 1 2104 2105
2063 1 2105 2106
2064 1 2106 2107
2065 1 2107 2108
2066 1 2108 2109
2067 1 2109 2110
2068 1 2110 2111
2069 1 2111 2112
2070 1 2112 2113
2071 1 2113 2114
2072 1 2114 2115
2073 1 2115 2116
2074 1 2116 2117
2075 1 2117 2118
2076 1 2118 2119
2077 1 2119 2120
2078 1 2120 2121
2079 1 2121 2122
2080 1 2122 2123
2081 1 2123 2124
2082 1 2124 2125
2083 1 2125 2126
2084 1 2126 2127
2085 1 2127 2128
2086 1 2128 2129
2087 1 2129 2130
2088 1 2130 2131
2089 1 2131 2132
2090 1 2132 2133
2091 1 2133 2134
2092 1 2134 2135
2093 1 2135 2136
2094 1 2136 2137
2095 1 2137 2138
2096 1 2138 2139
2097 1 2139 2140
2098 1 2140 2141
2099 1 2141 2142
2100 1 2142 2143
2101 1 2143 2144
2102 1 2144 2145
2103 1 2145 2146
2104 1 2146 2147
2105 1 2147 2148
2106 1 2148 2149
2107 1 2149 2150
2108 1 2151 2152
2109 1 2152 2153
2110 1 2153 2154
2111 1 2154 2155
2112 1 2155 2156
2113 1 2156 2157
2114 1 2157 2158
2115 1 2158 2159
2116 1 2159 2160
2117 1 2160 2161
2118 1 2161 2162
2119 1 2162 2163
2120 1 2163 2164
2121 1 2164 2165
2122 1 2165 2166
2123 1 2166 2167
2124 1 2167 2168
2125 1 2168 2169
2126 1 2169 2170
2127 1 2170 2171
2128 1 2171 2172
2129 1 2172 2173
2130 1 2173 2174
2131 1 2174 2175
2132 1 2175 2176
2133 1 2176 2177
2134 1 2177 2178
2135 1 2178 2179
2136 1 2179 2180
2137 1 2180 2181
2138 1 2181 2182
2139 1 2182 2183
2140 1 2183 2184
2141 1 2184 2185
2142 1 2185 2186
2143 1 2186 2187
2144 1 2187 2188
2145 1 2188 2189
2146 1 2189 2190
2147 1 2190 2191
2148 1 2191 2192
2149 1 2192 2193
2150 1 2193 2194
2151 1 2194 2195
2152 1 2195 2196
2153 1 2196 2197
2154 1 2197 2198
2155 1 2198 2199
2156 1 2199 2200
2157 1 2201 2202
2158 1 2202 2203
2159 1 2203 2204
2160 1 2204 2205
2161 1 2205 2206
2162 1 2206 2207
2163 1 2207 2208
2164 1 2208 2209
2165 1 2209 2210
2166 1 2210 2211
2167 1 2211 2212
2168 1 2212 2213
2169 1 2213 2214
2170 1 2214 2215
2171 1 2215 2216
2172 1 2216 2217
2173 1 2217 2218
2174 1 2218 2219
2175 1 2219 2220
2176 1 2220 2221
2177 1 2221 2222
2178 1 2222 2223
2179 1 2223 2224
2180 1 2224 2225
2181 1 2225 2226
2182 1 2226 2227
2183 1 2227 2228
2184 1 2228 2229
2185 1 2229 2230
2186 1 2230 2231
2187 1 2231 2232
2188 1 2232 2233
2189 1 2233 2234
2190 1 2234 2235
2191 1 2235 2236
2192 1 2236 2237
2193 1 2237 2238
2194 1 2238 2239
2195 1 2239 2240
2196 1 2240 2241
2197 1 2241 2242
2198 1 2242 2243
2199 1 2243 2244
2200 1 2244 2245
2201 1 2245 2246
2202 1 2246 2247
2203 1 2247 2248
2204 1 2248 2249
2205 1 2249 2250
2206 1 2251 2252
2207 1 2252 2253
2208 1 2253 2254
2209 1 2254 2255
2210 1 2255 2256
2211 1 2256 2257
2212 1 2257 2258
2213 1 2258 2259
2214 1 2259 2260
2215 1 2260 2261
2216 1 2261 2262
2217 1 2262 2263
2218 1 2263 2264
2219 1 2264 2265
2220 1 2265 2266
2221 1 2266 2267
2222 1 2267 2268
2223 1 2268 2269
2224 1 2269 2270
2225 1 2270 2271
2226 1 2271 2272
2227 1 2272 2273
2228 1 2273 2274
2229 1 2274 2275
2230 1 2275 2276
2231 1 2276 2277
2232 1 2277 2278
2233 1 2278 2279
2234 1 2279 2280
2235 1 2280 2281
2236 1 2281 2282
2237 1 2282 2283
2238 1 2283 2284
2239 1 2284 2285
2240 1 2285 2286
2241 1 2286 2287
2242 1 2287 2288
2243 1 2288 2289
2244 1 2289 2290
2245 1 2290 2291
2246 1 2291 2292
2247 1 2292 2293
2248 1 2293 2294
2249 1 2294 2295
2250 1 2295 2296
2251 1 2296 2297
2252 1 2297 2298
2253 1 2298 2299
2254 1 2299 2300
2255 1 2301 2302
2256 1 2302 2303
2257 1 2303 2304
2258 1 2304 2305
2259 1 2305 2306
2260 1 2306 2307
2261 1 2307 2308
2262 1 2308 2309
2263 1 2309 2310
2264 1 2310 2311
2265 1 2311 2312
2266 1 2312 2313
2267 1 2313 2314
2268 1 2314 2315
2269 1 2315 2316
2270 1 2316 2317
2271 1 2317 2318
2272 1 2318 2319
2273 1 2319 2320
2274 1 2320 2321
2275 1 2321 2322
2276 1 2322 2323
2277 1 2323 2324
2278 1 2324 2325
2279 1 2325 2326
2280 1 2326 2327
2281 1 2327 2328
2282 1 2328 2329
2283 1 2329 2330
2284 1 2330 2331
2285 1 2331 2332
2286 1 2332 2333
2287 1 2333 2334
2288 1 2334 2335
2289 1 2335 2336
2290 1 2336 2337
2291 1 2337 2338
2292 1 2338 2339
2293 1 2339 2340
2294 1 2340 2341
2295 1 2341 2342
2296 1 2342 2343
2297 1 2343 2344
2298 1 2344 2345
2299 1 2345 2346
2300 1 2346 2347
2301 1 2347 2348
2302 1 2348 2349
2303 1 2349 2350
2304 1 2351 2352
2305 1 2352 2353
2306 1 2353 2354
2307 1 2354 2355
2308 1 2355 2356
2309 1 2356 2357
2310 1 2357 2358
2311 1 2358 2359
2312 1 2359 2360
2313 1 2360 2361
2314 1 2361 2362
2315 1 2362 2363
2316 1 2363 2364
2317 1 2364 2365
2318 1 2365 2366
2319 1 2366 2367
2320 1 2367 2368
2321 1 2368 2369
2322 1 2369 2370
2323 1 2370 2371
2324 1 2371 2372
2325 1 2372 2373
2326 1 2373 2374
2327 1 2374 2375
2328 1 2375 2376
2329 1 2376 2377
2330 1 2377 2378
2331 1 2378 2379
2332 1 2379 2380
2333 1 2380 2381
2334 1 2381 2382
2335 1 2382 2383
2336 1 2383 2384
2337 1 2384 2385
2338 1 2385 2386
2339 1 2386 2387
2340 1 2387 2388
2341 1 2388 2389
2342 1 2389 2390
2343 1 2390 2391
2344 1 2391 2392
2345 1 2392 2393
2346 1 2393 2394
2347 1 2394 2395
2348 1 2395 2396
2349 1 2396 2397
2350 1 2397 2398
2351 1 2398 2399
2352 1 2399 2400
2353 1 2401 2402
2354 1 2402 2403
2355 1 2403 2404
2356 1 2404 2405
2357 1 2405 2406
2358 1 2406 2407
2359 1 2407 2408
2360 1 2408 2409
2361 1 2409 2410
2362 1 2410 2411
2363 1 2411 2412
2364 1 2412 2413
2365 1 2413 2414
2366 1 2414 2415
2367 1 2415 2416
2368 1 2416 2417
2369 1 2417 2418
2370 1 2418 2419
2371 1 2419 2420
2372 1 2420 2421
2373 1 2421 2422
2374 1 2422 2423
2375 1 2423 2424
2376 1 2424 2425
2377 1 2425 2426
2378 1 2426 2427
2379 1 2427 2428
2380 1 2428 2429
2381 1 2429 2430
2382 1 2430 2431
2383 1 2431 2432
2384 1 2432 2433
2385 1 2433 2434
2386 1 2434 2435
2387 1 2435 2436
2388 1 2436 2437
2389 1 2437 2438
2390 1 2438 2439
2391 1 2439 2440
2392 1 2440 2441
2393 1 2441 2442
2394 1 2442 2443
2395 1 2443 2444
2396 1 2444 2445
2397 1 2445 2446
2398 1 2446 2447
2399 1 2447 2448
2400 1 2448 2449
2401 1 2449 2450
2402 1 2451 2452
2403 1 2452 2453
2404 1 2453 2454
2405 1 2454 2455
2406 1 2455 2456
2407 1 2456 2457
2408 1 2457 2458
2409 1 2458 2459
2410 1 2459 2460
2411 1 2460 2461
2412 1 2461 2462
2413 1 2462 2463
2414 1 2463 2464
2415 1 2464 2465
2416 1 2465 2466
2417 1 2466 2467
2418 1 2467 2468
2419 1 2468 2469
2420 1 2469 2470
2421 1 2470 2471
2422 1 2471 2472
2423 1 2472 2473
2424 1 2473 2474
2425 1 2474 2475
2426 1 2475 2476
2427 1 2476 2477
2428 1 2477 2478
2429 1 2478 2479
2430 1 2479 2480
2431 1 2480 2481
2432 1 2481 2482
2433 1 2482 2483
2434 1 2483 2484
2435 1 2484 2485
2436 1 2485 2486
2437 1 2486 2487
2438 1 2487 2488
2439 1 2488 2489
2440 1 2489 2490
2441 1 2490 2491
2442 1 2491 2492
2443 1 2492 2493
2444 1 2493 2494
2445 1 2494 2495
2446 1 2495 2496
2447 1 2496 2497
2448 1 2497 2498
2449 1 2498 2499
2450 1 2499 2500
2451 2 2501 2502
2452 2 2502 2503
2453 2 2503 2504
2454 2 2504 2505
2455 2 2505 2506
2456 2 2506 2507
2457 2 2507 2508
2458 2 2508 2509
2459 2 2509 2510
2460 2 2511 2512
2461 2 2512 2513
2462 2 2513 2514
2463 2 2514 2515
2464 2 2515 2516
2465 2 2516 2517
2466 2 2517 2518
2467 2 2518 2519
2468 2 2519 2520
2469 2 2521 2522
2470 2 2522 2523
2471 2 2523 2524
2472 2 2524 2525
2473 2 2525 2526
2474 2 2526 2527
2475 2 2527 2528
2476 2 2528 2529
2477 2 2529 2530
2478 2 2531 2532
2479 2 2532 2533
2480 2 2533 2534
2481 2 2534 2535
2482 2 2535 2536
2483 2 2536 2537
2484 2 2537 2538
2485 2 2538 2539
2486 2 2539 2540
2487 2 2541 2542
2488 2 2542 2543
2489 2 2543 2544
2490 2 2544 2545
2491 2 2545 2546
2492 2 2546 2547
2493 2 2547 2548
2494 2 2548 2549
2495 2 2549 2550
2496 2 2551 2552
2497 2 2552 2553
2498 2 2553 2554
2499 2 2554 2555
2500 2 2555 2556
2501 2 2556 2557
2502 2 2557 2558
2503 2 2558 2559
2504 2 2559 2560
2505 2 2561 2562
2506 2 2562 2563
2507 2 2563 2564
2508 2 2564 2565
2509 2 2565 2566
2510 2 2566 2567
2511 2 2567 2568
2512 2 2568 2569
2513 2 2569 2570
2514 2 2571 2572
2515 2 2572 2573
2516 2 2573 2574
2517 2 2574 2575
2518 2 2575 2576
2519 2 2576 2577
2520 2 2577 2578
2521 2 2578 2579
2522 2 2579 2580
2523 2 2581 2582
2524 2 2582 2583
2525 2 2583 2584
2526 2 2584 2585
2527 2 2585 2586
2528 2 2586 2587
2529 2 2587 2588
2530 2 2588 2589
2531 2 2589 2590
2532 2 2591 2592
2533 2 2592 2593
2534 2 2593 2594
2535 2 2594 2595
2536 2 2595 2596
2537 2 2596 2597
2538 2 2597 2598
2539 2 2598 2599
2540 2 2599 2600
2541 2 2601 2602
2542 2 2602 2603
2543 2 2603 2604
2544 2 2604 2605
2545 2 2605 2606
2546 2 2606 2607
2547 2 2607 2608
2548 2 2608 2609
2549 2 2609 2610
2550 2 2611 2612
2551 2 2612 2613
2552 2 2613 2614
2553 2 2614 2615
2554 2 2615 2616
2555 2 2616 2617
2556 2 2617 2618
2557 2 2618 2619
2558 2 2619 2620
2559 2 2621 2622
2560 2 2622 2623
2561 2 2623 2624
2562 2 2624 2625
2563 2 2625 2626
2564 2 2626 2627
2565 2 2627 2628
2566 2 2628 2629
2567 2 2629 2630
2568 2 2631 2632
2569 2 2632 2633
2570 2 2633 2634
2571 2 2634 2635
2572 2 2635 2636
2573 2 2636 2637
2574 2 2637 2638
2575 2 2638 2639
2576 2 2639 2640
2577 2 2641 2642
2578 2 2642 2643
2579 2 2643 2644
2580 2 2644 2645
2581 2 2645 2646
2582 2 2646 2647
2583 2 2647 2648
2584 2 2648 2649
2585 2 2649 2650
2586 2 2651 2652
2587 2 2652 2653
2588 2 2653 2654
2589 2 2654 2655
2590 2 2655 2656
2591 2 2656 2657
2592 2 2657 2658
2593 2 2658 2659
2594 2 2659 2660
2595 2 2661 2662
2596 2 2662 2663
2597 2 2663 2664
2598 2 2664 2665
2599 2 2665 2666
2600 2 2666 2667
2601 2 2667 2668
2602 2 2668 2669
2603 2 2669 2670
2604 2 2671 2672
2605 2 2672 2673
2606 2 2673 2674
2607 2 2674 2675
2608 2 2675 2676
2609 2 2676 2677
2610 2 2677 2678
2611 2 2678 2679
2612 2 2679 2680
2613 2 2681 2682
2614 2 2682 2683
2615 2 2683 2684
2616 2 2684 2685
2617 2 2685 2686
2618 2 2686 2687
2619 2 2687 2688
2620 2 2688 2689
2621 2 2689 2690
2622 2 2691 2692
2623 2 2692 2693
2624 2 2693 2694
2625 2 2694 2695
2626 2 2695 2696
2627 2 2696 2697
2628 2 2697 2698
2629 2 2698 2699
2630 2 2699 2700
2631 2 2701 2702
2632 2 2702 2703
2633 2 2703 2704
2634 2 2704 2705
2635 2 2705 2706
2636 2 2706 2707
2637 2 2707 2708
2638 2 2708 2709
2639 2 2709 2710
2640 2 2711 2712
2641 2 2712 2713
2642 2 2713 2714
2643 2 2714 2715
2644 2 2715 2716
2645 2 2716 2717
2646 2 2717 2718
2647 2 2718 2719
2648 2 2719 2720
2649 2 2721 2722
2650 2 2722 2723
2651 2 2723 2724
2652 2 2724 2725
2653 2 2725 2726
2654 2 2726 2727
2655 2 2727 2728
2656 2 2728 2729
2657 2 2729 2730
2658 2 2731 2732
2659 2 2732 2733
2660 2 2733 2734
2661 2 2734 2735
2662 2 2735 2736
2663 2 2736 2737
2664 2 2737 2738
2665 2 2738 2739
2666 2 2739 2740
2667 2 2741 2742
2668 2 2742 2743
2669 2 2743 2744
2670 2 2744 2745
2671 2 2745 2746
2672 2 2746 2747
2673 2 2747 2748
2674 2 2748 2749
2675 2 2749 2750
2676 2 2751 2752
2677 2 2752 2753
2678 2 2753 2754
2679 2 2754 2755
2680 2 2755 2756
2681 2 2756 2757
2682 2 2757 2758
2683 2 2758 2759
2684 2 2759 2760
2685 2 2761 2762
2686 2 2762 2763
2687 2 2763 2764
2688 2 2764 2765
2689 2 2765 2766
2690 2 2766 2767
2691 2 2767 2768
2692 2 2768 2769
2693 2 2769 2770
2694 2 2771 2772
2695 2 2772 2773
2696 2 2773 2774
2697 2 2774 2775
2698 2 2775 2776
2699 2 2776 2777
2700 2 2777 2778
2701 2 2778 2779
2702 2 2779 2780
2703 2 2781 2782
2704 2 2782 2783
2705 2 2783 2784
2706 2 2784 2785
2707 2 2785 2786
2708 2 2786 2787
2709 2 2787 2788
2710 2 2788 2789
2711 2 2789 2790
2712 2 2791 2792
2713 2 2792 2793
2714 2 2793 2794
2715 2 2794 2795
2716 2 2795 2796
2717 2 2796 2797
2718 2 2797 2798
2719 2 2798 2799
2720 2 2799 2800
2721 2 2801 2802
2722 2 2802 2803
2723 2 2803 2804
2724 2 2804 2805
2725 2 2805 2806
2726 2 2806 2807
2727 2 2807 2808
2728 2 2808 2809
2729 2 2809 2810
2730 2 2811 2812
2731 2 2812 2813
2732 2 2813 2814
2733 2 2814 2815
2734 2 2815 2816
2735 2 2816 2817
2736 2 2817 2818
2737 2 2818 2819
2738 2 2819 2820
2739 2 2821 2822
2740 2 2822 2823
2741 2 2823 2824
2742 2 2824 2825
2743 2 2825 2826
2744 2 2826 2827
2745 2 2827 2828
2746 2 2828 2829
2747 2 2829 2830
2748 2 2831 2832
2749 2 2832 2833
2750 2 2833 2834
2751 2 2834 2835
2752 2 2835 2836
2753 2 2836 2837
2754 2 2837 2838
2755 2 2838 2839
2756 2 2839 2840
2757 2 2841 2842
2758 2 2842 2843
2759 2 2843 2844
2760 2 2844 2845
2761 2 2845 2846
2762 2 2846 2847
2763 2 2847 2848
2764 2 2848 2849
2765 2 2849 2850
2766 2 2851 2852
2767 2 2852 2853
2768 2 2853 2854
2769 2 2854 2855
2770 2 2855 2856
2771 2 2856 2857
2772 2 2857 2858
2773 2 2858 2859
2774 2 2859 2860
2775 2 2861 2862
2776 2 2862 2863
2777 2 2863 2864
2778 2 2864 2865
2779 2 2865 2866
2780 2 2866 2867
2781 2 2867 2868
2782 2 2868 2869
2783 2 2869 2870
2784 2 2871 2872
2785 2 2872 2873
2786 2 2873 2874
2787 2 2874 2875
2788 2 2875 2876
2789 2 2876 2877
2790 2 2877 2878
2791 2 2878 2879
2792 2 2879 2880
2793 2 2881 2882
2794 2 2882 2883
2795 2 2883 2884
2796 2 2884 2885
2797 2 2885 2886
2798 2 2886 2887
2799 2 2887 2888
2800 2 2888 2889
2801 2 2889 2890
2802 2 2891 2892
2803 2 2892 2893
2804 2 2893 2894
2805 2 2894 2895
2806 2 2895 2896
2807 2 2896 2897
2808 2 2897 2898
2809 2 2898 2899
2810 2 2899 2900
2811 2 2901 2902
2812 2 2902 2903
2813 2 2903 2904
2814 2 2904 2905
2815 2 2905 2906
2816 2 2906 2907
2817 2 2907 2908
2818 2 2908 2909
2819 2 2909 2910
2820 2 2911 2912
2821 2 2912 2913
2822 2 2913 2914
2823 2 2914 2915
2824 2 2915 2916
2825 2 2916 2917
2826 2 2917 2918
2827 2 2918 2919
2828 2 2919 2920
2829 2 2921 2922
2830 2 2922 2923
2831 2 2923 2924
2832 2 2924 2925
2833 2 2925 2926
2834 2 2926 2927
2835 2 2927 2928
2836 2 2928 2929
2837 2 2929 2930
2838 2 2931 2932
2839 2 2932 2933
2840 2 2933 2934
2841 2 2934 2935
2842 2 2935 2936
2843 2 2936 2937
2844 2 2937 2938
2845 2 2938 2939
2846 2 2939 2940
2847 2 2941 2942
2848 2 2942 2943
2849 2 2943 2944
2850 2 2944 2945
2851 2 2945 2946
2852 2 2946 2947
2853 2 2947 2948
2854 2 2948 2949
2855 2 2949 2950
2856 2 2951 2952
2857 2 2952 2953
2858 2 2953 2954
2859 2 2954 2955
2860 2 2955 2956
2861 2 2956 2957
2862 2 2957 2958
2863 2 2958 2959
2864 2 2959 2960
2865 2 2961 2962
2866 2 2962 2963
2867 2 2963 2964
2868 2 2964 2965
2869 2 2965 2966
2870 2 2966 2967
2871 2 2967 2968
2872 2 2968 2969
2873 2 2969 2970
2874 2 2971 2972
2875 2 2972 2973
2876 2 2973 2974
2877 2 2974 2975
2878 2 2975 2976
2879 2 2976 2977
2880 2 2977 2978
2881 2 2978 2979
2882 2 2979 2980
2883 2 2981 2982
2884 2 2982 2983
2885 2 2983 2984
2886 2 2984 2985
2887 2 2985 2986
2888 2 2986 2987
2889 2 2987 2988
2890 2 2988 2989
2891 2 2989 2990
2892 2 2991 2992
2893 2 2992 2993
2894 2 2993 2994
2895 2 2994 2995
2896 2 2995 2996
2897 2 2996 2997
2898 2 2997 2998
2899 2 2998 2999
2900 2 2999 3000
2901 2 3001 3002
2902 2 3002 3003
2903 2 3003 3004
2904 2 3004 3005
2905 2 3005 3006
2906 2 3006 3007
2907 2 3007 3008
2908 2 3008 3009
2909 2 3009 3010
2910 2 3011 3012
2911 2 3012 3013
2912 2 3013 3014
2913 2 3014 3015
2914 2 3015 3016
2915 2 3016 3017
2916 2 3017 3018
2917 2 3018 3019
2918 2 3019 3020
2919 2 3021 3022
2920 2 3022 3023
2921 2 3023 3024
2922 2 3024 3025
2923 2 3025 3026
2924 2 3026 3027
2925 2 3027 3028
2926 2 3028 3029
2927 2 3029 3030
2928 2 3031 3032
2929 2 3032 3033
2930 2 3033 3034
2931 2 3034 3035
2932 2 3035 3036
2933 2 3036 3037
2934 2 3037 3038
2935 2 3038 3039
2936 2 3039 3040
2937 2 3041 3042
2938 2 3042 3043
2939 2 3043 3044
2940 2 3044 3045
2941 2 3045 3046
2942 2 3046 3047
2943 2 3047 3048
2944 2 3048 3049
2945 2 3049 3050
2946 2 3051 3052
2947 2 3052 3053
2948 2 3053 3054
2949 2 3054 3055
2950 2 3055 3056
2951 2 3056 3057
2952 2 3057 3058
2953 2 3058 3059
2954 2 3059 3060
2955 2 3061 3062
2956 2 3062 3063
2957 2 3063 3064
2958 2 3064 3065
2959 2 3065 3066
2960 2 3066 3067
2961 2 3067 3068
2962 2 3068 3069
2963 2 3069 3070
2964 2 3071 3072
2965 2 3072 3073
2966 2 3073 3074
2967 2 3074 3075
2968 2 3075 3076
2969 2 3076 3077
2970 2 3077 3078
2971 2 3078 3079
2972 2 3079 3080
2973 2 3081 3082
2974 2 3082 3083
2975 2 3083 3084
2976 2 3084 3085
2977 2 3085 3086
2978 2 3086 3087
2979 2 3087 3088
2980 2 3088 3089
2981 2 3089 3090
2982 2 3091 3092
2983 2 3092 3093
2984 2 3093 3094
2985 2 3094 3095
2986 2 3095 3096
2987 2 3096 3097
2988 2 3097 3098
2989 2 3098 3099
2990 2 3099 3100
2991 2 3101 3102
2992 2 3102 3103
2993 2 3103 3104
2994 2 3104 3105
2995 2 3105 3106
2996 2 3106 3107
2997 2 3107 3108
2998 2 3108 3109
2999 2 3109 3110
3000 2 3111 3112
3001 2 3112 3113
3002 2 3113 3114
3003 2 3114 3115
3004 2 3115 3116
3005 2 3116 3117
3006 2 3117 3118
3007 2 3118 3119
3008 2 3119 3120
3009 2 3121 3122
3010 2 3122 3123
3011 2 3123 3124
3012 2 3124 3125
3013 2 3125 3126
3014 2 3126 3127
3015 2 3127 3128
3016 2 3128 3129
3017 2 3129 3130
3018 2 3131 3132
3019 2 3132 3133
3020 2 3133 3134
3021 2 3134 3135
3022 2 3135 3136
3023 2 3136 3137
3024 2 3137 3138
3025 2 3138 3139
3026 2 3139 3140
3027 2 3141 3142
3028 2 3142 3143
3029 2 3143 3144
3030 2 3144 3145
3031 2 3145 3146
3032 2 3146 3147
3033 2 3147 3148
3034 2 3148 3149
3035 2 3149 3150
3036 2 3151 3152
3037 2 3152 3153
3038 2 3153 3154
3039 2 3154 3155
3040 2 3155 3156
3041 2 3156 3157
3042 2 3157 3158
3043 2 3158 3159
3044 2 3159 3160
3045 2 3161 3162
3046 2 3162 3163
3047 2 3163 3164
3048 2 3164 3165
3049 2 3165 3166
3050 2 3166 3167
3051 2 3167 3168
3052 2 3168 3169
3053 2 3169 3170
3054 2 3171 3172
3055 2 3172 3173
3056 2 3173 3174
3057 2 3174 3175
3058 2 3175 3176
3059 2 3176 3177
3060 2 3177 3178
3061 2 3178 3179
3062 2 3179 3180
3063 2 3181 3182
3064 2 3182 3183
3065 2 3183 3184
3066 2 3184 3185
3067 2 3185 3186
3068 2 3186 3187
3069 2 3187 3188
3070 2 3188 3189
3071 2 3189 3190
3072 2 3191 3192
3073 2 3192 3193
3074 2 3193 3194
3075 2 3194 3195
3076 2 3195 3196
3077 2 3196 3197
3078 2 3197 3198
3079 2 3198 3199
3080 2 3199 3200
3081 2 3201 3202
3082 2 3202 3203
3083 2 3203 3204
3084 2 3204 3205
3085 2 3205 3206
3086 2 3206 3207
3087 2 3207 3208
3088 2 3208 3209
3089 2 3209 3210
3090 2 3211 3212
3091 2 3212 3213
3092 2 3213 3214
3093 2 3214 3215
3094 2 3215 3216
3095 2 3216 3217
3096 2 3217 3218
3097 2 3218 3219
3098 2 3219 3220
3099 2 3221 3222
3100 2 3222 3223
3101 2 3223 3224
3102 2 3224 3225
3103 2 3225 3226
3104 2 3226 3227
3105 2 3227 3228
3106 2 3228 3229
3107 2 3229 3230
3108 2 3231 3232
3109 2 3232 3233
3110 2 3233 3234
3111 2 3234 3235
3112 2 3235 3236
3113 2 3236 3237
3114 2 3237 3238
3115 2 3238 3239
3116 2 3239 3240
3117 2 3241 3242
3118 2 3242 3243
3119 2 3243 3244
3120 2 3244 3245
3121 2 3245 3246
3122 2 3246 3247
3123 2 3247 3248
3124 2 3248 3249
3125 2 3249 3250
3126 2 3251 3252
3127 2 3252 3253
3128 2 3253 3254
3129 2 3254 3255
3130 2 3255 3256
3131 2 3256 3257
3132 2 3257 3258
3133 2 3258 3259
3134 2 3259 3260
3135 2 3261 3262
3136 2 3262 3263
3137 2 3263 3264
3138 2 3264 3265
3139 2 3265 3266
3140 2 3266 3267
3141 2 3267 3268
3142 2 3268 3269
3143 2 3269 3270
3144 2 3271 3272
3145 2 3272 3273
3146 2 3273 3274
3147 2 3274 3275
3148 2 3275 3276
3149 2 3276 3277
3150 2 3277 3278
3151 2 3278 3279
3152 2 3279 3280
3153 2 3281 3282
3154 2 3282 3283
3155 2 3283 3284
3156 2 3284 3285
3157 2 3285 3286
3158 2 3286 3287
3159 2 3287 3288
3160 2 3288 3289
3161 2 3289 3290
3162 2 3291 3292
3163 2 3292 3293
3164 2 3293 3294
3165 2 3294 3295
3166 2 3295 3296
3167 2 3296 3297
3168 2 3297 3298
3169 2 3298 3299
3170 2 3299 3300
3171 2 3301 3302
3172 2 3302 3303
3173 2 3303 3304
3174 2 3304 3305
3175 2 3305 3306
3176 2 3306 3307
3177 2 3307 3308
3178 2 3308 3309
3179 2 3309 3310
3180 2 3311 3312
3181 2 3312 3313
3182 2 3313 3314
3183 2 3314 3315
3184 2 3315 3316
3185 2 3316 3317
3186 2 3317 3318
3187 2 3318 3319
3188 2 3319 3320
3189 2 3321 3322
3190 2 3322 3323
3191 2 3323 3324
3192 2 3324 3325
3193 2 3325 3326
3194 2 3326 3327
3195 2 3327 3328
3196 2 3328 3329
3197 2 3329 3330
3198 2 3331 3332
3199 2 3332 3333
3200 2 3333 3334
3201 2 3334 3335
3202 2 3335 3336
3203 2 3336 3337
3204 2 3337 3338
3205 2 3338 3339
3206 2 3339 3340
3207 2 3341 3342
3208 2 3342 3343
3209 2 3343 3344
3210 2 3344 3345
3211 2 3345 3346
3212 2 3346 3347
3213 2 3347 3348
3214 2 3348 3349
3215 2 3349 3350
3216 2 3351 3352
3217 2 3352 3353
3218 2 3353 3354
3219 2 3354 3355
3220 2 3355 3356
3221 2 3356 3357
3222 2 3357 3358
3223 2 3358 3359
3224 2 3359 3360
3225 2 3361 3362
3226 2 3362 3363
3227 2 3363 3364
3228 2 3364 3365
3229 2 3365 3366
3230 2 3366 3367
3231 2 3367 3368
3232 2 3368 3369
3233 2 3369 3370
3234 2 3371 3372
3235 2 3372 3373
3236 2 3373 3374
3237 2 3374 3375
3238 2 3375 3376
3239 2 3376 3377
3240 2 3377 3378
3241 2 3378 3379
3242 2 3379 3380
3243 2 3381 3382
3244 2 3382 3383
3245 2 3383 3384
3246 2 3384 3385
3247 2 3385 3386
3248 2 3386 3387
3249 2 3387 3388
3250 2 3388 3389
3251 2 3389 3390
3252 2 3391 3392
3253 2 3392 3393
3254 2 3393 3394
3255 2 3394 3395
3256 2 3395 3396
3257 2 3396 3397
3258 2 3397 3398
3259 2 3398 3399
3260 2 3399 3400
3261 2 3401 3402
3262 2 3402 3403
3263 2 3403 3404
3264 2 3404 3405
3265 2 3405 3406
3266 2 3406 3407
3267 2 3407 3408
3268 2 3408 3409
3269 2 3409 3410
3270 2 3411 3412
3271 2 3412 3413
3272 2 3413 3414
3273 2 3414 3415
3274 2 3415 3416
3275 2 3416 3417
3276 2 3417 3418
3277 2 3418 3419
3278 2 3419 3420
3279 2 3421 3422
3280 2 3422 3423
3281 2 3423 3424
3282 2 3424 3425
3283 2 3425 3426
3284 2 3426 3427
3285 2 3427 3428
3286 2 3428 3429
3287 2 3429 3430
3288 2 3431 3432
3289 2 3432 3433
3290 2 3433 3434
3291 2 3434 3435
3292 2 3435 3436
3293 2 3436 3437
3294 2 3437 3438
3295 2 3438 3439
3296 2 3439 3440
3297 2 3441 3442
3298 2 3442 3443
3299 2 3443 3444
3300 2 3444 3445
3301 2 3445 3446
3302 2 3446 3447
3303 2 3447 3448
3304 2 3448 3449
3305 2 3449 3450
3306 2 3451 3452
3307 2 3452 3453
3308 2 3453 3454
3309 2 3454 3455
3310 2 3455 3456
3311 2 3456 3457
3312 2 3457 3458
3313 2 3458 3459
3314 2 3459 3460
3315 2 3461 3462
3316 2 3462 3463
3317 2 3463 3464
3318 2 3464 3465
3319 2 3465 3466
3320 2 3466 3467
3321 2 3467 3468
3322 2 3468 3469
3323 2 3469 3470
3324 2 3471 3472
3325 2 3472 3473
3326 2 3473 3474
3327 2 3474 3475
3328 2 3475 3476
3329 2 3476 3477
3330 2 3477 3478
3331 2 3478 3479
3332 2 3479 3480
3333 2 3481 3482
3334 2 3482 3483
3335 2 3483 3484
3336 2 3484 3485
3337 2 3485 3486
3338 2 3486 3487
3339 2 3487 3488
3340 2 3488 3489
3341 2 3489 3490
3342 2 3491 3492
3343 2 3492 3493
3344 2 3493 3494
3345 2 3494 3495
3346 2 3495 3496
3347 2 3496 3497
3348 2 3497 3498
3349 2 3498 3499
3350 2 3499 3500
3351 2 3501 3502
3352 2 3502 3503
3353 2 3503 3504
3354 2 3504 3505
3355 2 3505 3506
3356 2 3506 3507
3357 2 3507 3508
3358 2 3508 3509
3359 2 3509 3510
3360 2 3511 3512
3361 2 3512 3513
3362 2 3513 3514
3363 2 3514 3515
3364 2 3515 3516
3365 2 3516 3517
3366 2 3517 3518
3367 2 3518 3519
3368 2 3519 3520
3369 2 3521 3522
3370 2 3522 3523
3371 2 3523 3524
3372 2 3524 3525
3373 2 3525 3526
3374 2 3526 3527
3375 2 3527 3528
3376 2 3528 3529
3377 2 3529 3530
3378 2 3531 3532
3379 2 3532 3533
3380 2 3533 3534
3381 2 3534 3535
3382 2 3535 3536
3383 2 3536 3537
3384 2 3537 3538
3385 2 3538 3539
3386 2 3539 3540
3387 2 3541 3542
3388 2 3542 3543
3389 2 3543 3544
3390 2 3544 3545
3391 2 3545 3546
3392 2 3546 3547
3393 2 3547 3548
3394 2 3548 3549
3395 2 3549 3550
3396 2 3551 3552
3397 2 3552 3553
3398 2 3553 3554
3399 2 3554 3555
3400 2 3555 3556
3401 2 3556 3557
3402 2 3557 3558
3403 2 3558 3559
3404 2 3559 3560
3405 2 3561 3562
3406 2 3562 3563
3407 2 3563 3564
3408 2 3564 3565
3409 2 3565 3566
3410 2 3566 3567
3411 2 3567 3568
3412 2 3568 3569
3413 2 3569 3570
3414 2 3571 3572
3415 2 3572 3573
3416 2 3573 3574
3417 2 3574 3575
3418 2 3575 3576
3419 2 3576 3577
3420 2 3577 3578
3421 2 3578 3579
3422 2 3579 3580
3423 2 3581 3582
3424 2 3582 3583
3425 2 3583 3584
3426 2 3584 3585
3427 2 3585 3586
3428 2 3586 3587
3429 2 3587 3588
3430 2 3588 3589
3431 2 3589 3590
3432 2 3591 3592
3433 2 3592 3593
3434 2 3593 3594
3435 2 3594 3595
3436 2 3595 3596
3437 2 3596 3597
3438 2 3597 3598
3439 2 3598 3599
3440 2 3599 3600
3441 2 3601 3602
3442 2 3602 3603
3443 2 3603 3604
3444 2 3604 3605
3445 2 3605 3606
3446 2 3606 3607
3447 2 3607 3608
3448 2 3608 3609
3449 2 3609 3610
3450 2 3611 3612
3451 2 3612 3613
3452 2 3613 3614
3453 2 3614 3615
3454 2 3615 3616
3455 2 3616 3617
3456 2 3617 3618
3457 2 3618 3619
3458 2 3619 3620
3459 2 3621 3622
3460 2 3622 3623
3461 2 3623 3624
3462 2 3624 3625
3463 2 3625 3626
3464 2 3626 3627
3465 2 3627 3628
3466 2 3628 3629
3467 2 3629 3630
3468 2 3631 3632
3469 2 3632 3633
3470 2 3633 3634
3471 2 3634 3635
3472 2 3635 3636
3473 2 3636 3637
3474 2 3637 3638
3475 2 3638 3639
3476 2 3639 3640
3477 2 3641 3642
3478 2 3642 3643
3479 2 3643 3644
3480 2 3644 3645
3481 2 3645 3646
3482 2 3646 3647
3483 2 3647 3648
3484 2 3648 3649
3485 2 3649 3650
3486 2 3651 3652
3487 2 3652 3653
3488 2 3653 3654
3489 2 3654 3655
3490 2 3655 3656
3491 2 3656 3657
3492 2 3657 3658
3493 2 3658 3659
3494 2 3659 3660
3495 2 3661 3662
3496 2 3662 3663
3497 2 3663 3664
3498 2 3664 3665
3499 2 3665 3666
3500 2 3666 3667
3501 2 3667 3668
3502 2 3668 3669
3503 2 3669 3670
3504 2 3671 3672
3505 2 3672 3673
3506 2 3673 3674
3507 2 3674 3675
3508 2 3675 3676
3509 2 3676 3677
3510 2 3677 3678
3511 2 3678 3679
3512 2 3679 3680
3513 2 3681 3682
3514 2 3682 3683
3515 2 3683 3684
3516 2 3684 3685
3517 2 3685 3686
3518 2 3686 3687
3519 2 3687 3688
3520 2 3688 3689
3521 2 3689 3690
3522 2 3691 3692
3523 2 3692 3693
3524 2 3693 3694
3525 2 3694 3695
3526 2 3695 3696
3527 2 3696 3697
3528 2 3697 3698
3529 2 3698 3699
3530 2 3699 3700
3531 2 3701 3702
3532 2 3702 3703
3533 2 3703 3704
3534 2 3704 3705
3535 2 3705 3706
3536 2 3706 3707
3537 2 3707 3708
3538 2 3708 3709
3539 2 3709 3710
3540 2 3711 3712
3541 2 3712 3713
3542 2 3713 3714
3543 2 3714 3715
3544 2 3715 3716
3545 2 3716 3717
3546 2 3717 3718
3547 2 3718 3719
3548 2 3719 3720
3549 2 3721 3722
3550 2 3722 3723
3551 2 3723 3724
3552 2 3724 3725
3553 2 3725 3726
3554 2 3726 3727
3555 2 3727 3728
3556 2 3728 3729
3557 2 3729 3730
3558 2 3731 3732
3559 2 3732 3733
3560 2 3733 3734
3561 2 3734 3735
3562 2 3735 3736
3563 2 3736 3737
3564 2 3737 3738
3565 2 3738 3739
3566 2 3739 3740
3567 2 3741 3742
3568 2 3742 3743
3569 2 3743 3744
3570 2 3744 3745
3571 2 3745 3746
3572 2 3746 3747
3573 2 3747 3748
3574 2 3748 3749
3575 2 3749 3750
3576 2 3751 3752
3577 2 3752 3753
3578 2 3753 3754
3579 2 3754 3755
3580 2 3755 3756
3581 2 3756 3757
3582 2 3757 3758
3583 2 3758 3759
3584 2 3759 3760
3585 2 3761 3762
3586 2 3762 3763
3587 2 3763 3764
3588 2 3764 3765
3589 2 3765 3766
3590 2 3766 3767
3591 2 3767 3768
3592 2 3768 3769
3593 2 3769 3770
3594 2 3771 3772
3595 2 3772 3773
3596 2 3773 3774
3597 2 3774 3775
3598 2 3775 3776
3599 2 3776 3777
3600 2 3777 3778
3601 2 3778 3779
3602 2 3779 3780
3603 2 3781 3782
3604 2 3782 3783
3605 2 3783 3784
3606 2 3784 3785
3607 2 3785 3786
3608 2 3786 3787
3609 2 3787 3788
3610 2 3788 3789
3611 2 3789 3790
3612 2 3791 3792
3613 2 3792 3793
3614 2 3793 3794
3615 2 3794 3795
3616 2 3795 3796
3617 2 3796 3797
3618 2 3797 3798
3619 2 3798 3799
3620 2 3799 3800
3621 2 3801 3802
3622 2 3802 3803
3623 2 3803 3804
3624 2 3804 3805
3625 2 3805 3806
3626 2 3806 3807
3627 2 3807 3808
3628 2 3808 3809
3629 2 3809 3810
3630 2 3811 3812
3631 2 3812 3813
3632 2 3813 3814
3633 2 3814 3815
3634 2 3815 3816
3635 2 3816 3817
3636 2 3817 3818
3637 2 3818 3819
3638 2 3819 3820
3639 2 3821 3822
3640 2 3822 3823
3641 2 3823 3824
3642 2 3824 3825
3643 2 3825 3826
3644 2 3826 3827
3645 2 3827 3828
3646 2 3828 3829
3647 2 3829 3830
3648 2 3831 3832
3649 2 3832 3833
3650 2 3833 3834
3651 2 3834 3835
3652 2 3835 3836
3653 2 3836 3837
3654 2 3837 3838
3655 2 3838 3839
3656 2 3839 3840
3657 2 3841 3842
3658 2 3842 3843
3659 2 3843 3844
3660 2 3844 3845
3661 2 3845 3846
3662 2 3846 3847
3663 2 3847 3848
3664 2 3848 3849
3665 2 3849 3850
3666 2 3851 3852
3667 2 3852 3853
3668 2 3853 3854
3669 2 3854 3855
3670 2 3855 3856
3671 2 3856 3857
3672 2 3857 3858
3673 2 3858 3859
3674 2 3859 3860
3675 2 3861 3862
3676 2 3862 3863
3677 2 3863 3864
3678 2 3864 3865
3679 2 3865 3866
3680 2 3866 3867
3681 2 3867 3868
3682 2 3868 3869
3683 2 3869 3870
3684 2 3871 3872
3685 2 3872 3873
3686 2 3873 3874
3687 2 3874 3875
3688 2 3875 3876
3689 2 3876 3877
3690 2 3877 3878
3691 2 3878 3879
3692 2 3879 3880
3693 2 3881 3882
3694 2 3882 3883
3695 2 3883 3884
3696 2 3884 3885
3697 2 3885 3886
3698 2 3886 3887
3699 2 3887 3888
3700 2 3888 3889
3701 2 3889 3890
3702 2 3891 3892
3703 2 3892 3893
3704 2 3893 3894
3705 2 3894 3895
3706 2 3895 3896
3707 2 3896 3897
3708 2 3897 3898
3709 2 3898 3899
3710 2 3899 3900
3711 2 3901 3902
3712 2 3902 3903
3713 2 3903 3904
3714 2 3904 3905
3715 2 3905 3906
3716 2 3906 3907
3717 2 3907 3908
3718 2 3908 3909
3719 2 3909 3910
3720 2 3911 3912
3721 2 3912 3913
3722 2 3913 3914
3723 2 3914 3915
3724 2 3915 3916
3725 2 3916 3917
3726 2 3917 3918
3727 2 3918 3919
3728 2 3919 3920
3729 2 3921 3922
3730 2 3922 3923
3731 2 3923 3924
3732 2 3924 3925
3733 2 3925 3926
3734 2 3926 3927
3735 2 3927 3928
3736 2 3928 3929
3737 2 3929 3930
3738 2 3931 3932
3739 2 3932 3933
3740 2 3933 3934
3741 2 3934 3935
3742 2 3935 3936
3743 2 3936 3937
3744 2 3937 3938
3745 2 3938 3939
3746 2 3939 3940
3747 2 3941 3942
3748 2 3942 3943
3749 2 3943 3944
3750 2 3944 3945
3751 2 3945 3946
3752 2 3946 3947
3753 2 3947 3948
3754 2 3948 3949
3755 2 3949 3950
3756 2 3951 3952
3757 2 3952 3953
3758 2 3953 3954
3759 2 3954 3955
3760 2 3955 3956
3761 2 3956 3957
3762 2 3957 3958
3763 2 3958 3959
3764 2 3959 3960
3765 2 3961 3962
3766 2 3962 3963
3767 2 3963 3964
3768 2 3964 3965
3769 2 3965 3966
3770 2 3966 3967
3771 2 3967 3968
3772 2 3968 3969
3773 2 3969 3970
3774 2 3971 3972
3775 2 3972 3973
3776 2 3973 3974
3777 2 3974 3975
3778 2 3975 3976
3779 2 3976 3977
3780 2 3977 3978
3781 2 3978 3979
3782 2 3979 3980
3783 2 3981 3982
3784 2 3982 3983
3785 2 3983 3984
3786 2 3984 3985
3787 2 3985 3986
3788 2 3986 3987
3789 2 3987 3988
3790 2 3988 3989
3791 2 3989 3990
3792 2 3991 3992
3793 2 3992 3993
3794 2 3993 3994
3795 2 3994 3995
3796 2 3995 3996
3797 2 3996 3997
3798 2 3997 3998
3799 2 3998 3999
3800 2 3999 4000
3801 2 4001 4002
3802 2 4002 4003
3803 2 4003 4004
3804 2 4004 4005
3805 2 4005 4006
3806 2 4006 4007
3807 2 4007 4008
3808 2 4008 4009
3809 2 4009 4010
3810 2 4011 4012
3811 2 4012 4013
3812 2 4013 4014
3813 2 4014 4015
3814 2 4015 4016
3815 2 4016 4017
3816 2 4017 4018
3817 2 4018 4019
3818 2 4019 4020
3819 2 4021 4022
3820 2 4022 4023
3821 2 4023 4024
3822 2 4024 4025
3823 2 4025 4026
3824 2 4026 4027
3825 2 4027 4028
3826 2 4028 4029
3827 2 4029 4030
3828 2 4031 4032
3829 2 4032 4033
3830 2 4033 4034
3831 2 4034 4035
3832 2 4035 4036
3833 2 4036 4037
3834 2 4037 4038
3835 2 4038 4039
3836 2 4039 4040
3837 2 4041 4042
3838 2 4042 4043
3839 2 4043 4044
3840 2 4044 4045
3841 2 4045 4046
3842 2 4046 4047
3843 2 4047 4048
3844 2 4048 4049
3845 2 4049 4050
3846 2 4051 4052
3847 2 4052 4053
3848 2 4053 4054
3849 2 4054 4055
3850 2 4055 4056
3851 2 4056 4057
3852 2 4057 4058
3853 2 4058 4059
3854 2 4059 4060
3855 2 4061 4062
3856 2 4062 4063
3857 2 4063 4064
3858 2 4064 4065
3859 2 4065 4066
3860 2 4066 4067
3861 2 4067 4068
3862 2 4068 4069
3863 2 4069 4070
3864 2 4071 4072
3865 2 4072 4073
3866 2 4073 4074
3867 2 4074 4075
3868 2 4075 4076
3869 2 4076 4077
3870 2 4077 4078
3871 2 4078 4079
3872 2 4079 4080
3873 2 4081 4082
3874 2 4082 4083
3875 2 4083 4084
3876 2 4084 4085
3877 2 4085 4086
3878 2 4086 4087
3879 2 4087 4088
3880 2 4088 4089
3881 2 4089 4090
3882 2 4091 4092
3883 2 4092 4093
3884 2 4093 4094
3885 2 4094 4095
3886 2 4095 4096
3887 2 4096 4097
3888 2 4097 4098
3889 2 4098 4099
3890 2 4099 4100
3891 2 4101 4102
3892 2 4102 4103
3893 2 4103 4104
3894 2 4104 4105
3895 2 4105 4106
3896 2 4106 4107
3897 2 4107 4108
3898 2 4108 4109
3899 2 4109 4110
3900 2 4111 4112
3901 2 4112 4113
3902 2 4113 4114
3903 2 4114 4115
3904 2 4115 4116
3905 2 4116 4117
3906 2 4117 4118
3907 2 4118 4119
3908 2 4119 4120
3909 2 4121 4122
3910 2 4122 4123
3911 2 4123 4124
3912 2 4124 4125
3913 2 4125 4126
3914 2 4126 4127
3915 2 4127 4128
3916 2 4128 4129
3917 2 4129 4130
3918 2 4131 4132
3919 2 4132 4133
3920 2 4133 4134
3921 2 4134 4135
3922 2 4135 4136
3923 2 4136 4137
3924 2 4137 4138
3925 2 4138 4139
3926 2 4139 4140
3927 2 4141 4142
3928 2 4142 4143
3929 2 4143 4144
3930 2 4144 4145
3931 2 4145 4146
3932 2 4146 4147
3933 2 4147 4148
3934 2 4148 4149
3935 2 4149 4150
3936 2 4151 4152
3937 2 4152 4153
3938 2 4153 4154
3939 2 4154 4155
3940 2 4155 4156
3941 2 4156 4157
3942 2 4157 4158
3943 2 4158 4159
3944 2 4159 4160
3945 2 4161 4162
3946 2 4162 4163
3947 2 4163 4164
3948 2 4164 4165
3949 2 4165 4166
3950 2 4166 4167
3951 2 4167 4168
3952 2 4168 4169
3953 2 4169 4170
3954 2 4171 4172
3955 2 4172 4173
3956 2 4173 4174
3957 2 4174 4175
3958 2 4175 4176
3959 2 4176 4177
3960 2 4177 4178
3961 2 4178 4179
3962 2 4179 4180
3963 2 4181 4182
3964 2 4182 4183
3965 2 4183 4184
3966 2 4184 4185
3967 2 4185 4186
3968 2 4186 4187
3969 2 4187 4188
3970 2 4188 4189
3971 2 4189 4190
3972 2 4191 4192
3973 2 4192 4193
3974 2 4193 4194
3975 2 4194 4195
3976 2 4195 4196
3977 2 4196 4197
3978 2 4197 4198
3979 2 4198 4199
3980 2 4199 4200
3981 2 4201 4202
3982 2 4202 4203
3983 2 4203 4204
3984 2 4204 4205
3985 2 4205 4206
3986 2 4206 4207
3987 2 4207 4208
3988 2 4208 4209
3989 2 4209 4210
3990 2 4211 4212
3991 2 4212 4213
3992 2 4213 4214
3993 2 4214 4215
3994 2 4215 4216
3995 2 4216 4217
3996 2 4217 4218
3997 2 4218 4219
3998 2 4219 4220
3999 2 4221 4222
4000 2 4222 4223
4001 2 4223 4224
4002 2 4224 4225
4003 2 4225 4226
4004 2 4226 4227
4005 2 4227 4228
4006 2 4228 4229
4007 2 4229 4230
4008 2 4231 4232
4009 2 4232 4233
4010 2 4233 4234
4011 2 4234 4235
4012 2 4235 4236
4013 2 4236 4237
4014 2 4237 4238
4015 2 4238 4239
4016 2 4239 4240
4017 2 4241 4242
4018 2 4242 4243
4019 2 4243 4244
4020 2 4244 4245
4021 2 4245 4246
4022 2 4246 4247
4023 2 4247 4248
4024 2 4248 4249
4025 2 4249 4250
4026 2 4251 4252
4027 2 4252 4253
4028 2 4253 4254
4029 2 4254 4255
4030 2 4255 4256
4031 2 4256 4257
4032 2 4257 4258
4033 2 4258 4259
4034 2 4259 4260
4035 2 4261 4262
4036 2 4262 4263
4037 2 4263 4264
4038 2 4264 4265
4039 2 4265 4266
4040 2 4266 4267
4041 2 4267 4268
4042 2 4268 4269
4043 2 4269 4270
4044 2 4271 4272
4045 2 4272 4273
4046 2 4273 4274
4047 2 4274 4275
4048 2 4275 4276
4049 2 4276 4277
4050 2 4277 4278
4051 2 4278 4279
4052 2 4279 4280
4053 2 4281 4282
4054 2 4282 4283
4055 2 4283 4284
4056 2 4284 4285
4057 2 4285 4286
4058 2 4286 4287
4059 2 4287 4288
4060 2 4288 4289
4061 2 4289 4290
4062 2 4291 4292
4063 2 4292 4293
4064 2 4293 4294
4065 2 4294 4295
4066 2 4295 4296
4067 2 4296 4297
4068 2 4297 4298
4069 2 4298 4299
4070 2 4299 4300
4071 2 4301 4302
4072 2 4302 4303
4073 2 4303 4304
4074 2 4304 4305
4075 2 4305 4306
4076 2 4306 4307
4077 2 4307 4308
4078 2 4308 4309
4079 2 4309 4310
4080 2 4311 4312
4081 2 4312 4313
4082 2 4313 4314
4083 2 4314 4315
4084 2 4315 4316
4085 2 4316 4317
4086 2 4317 4318
4087 2 4318 4319
4088 2 4319 4320
4089 2 4321 4322
4090 2 4322 4323
4091 2 4323 4324
4092 2 4324 4325
4093 2 4325 4326
4094 2 4326 4327
4095 2 4327 4328
4096 2 4328 4329
4097 2 4329 4330
4098 2 4331 4332
4099 2 4332 4333
4100 2 4333 4334
4101 2 4334 4335
4102 2 4335 4336
4103 2 4336 4337
4104 2 4337 4338
4105 2 4338 4339
4106 2 4339 4340
4107 2 4341 4342
4108 2 4342 4343
4109 2 4343 4344
4110 2 4344 4345
4111 2 4345 4346
4112 2 4346 4347
4113 2 4347 4348
4114 2 4348 4349
4115 2 4349 4350
4116 2 4351 4352
4117 2 4352 4353
4118 2 4353 4354
4119 2 4354 4355
4120 2 4355 4356
4121 2 4356 4357
4122 2 4357 4358
4123 2 4358 4359
4124 2 4359 4360
4125 2 4361 4362
4126 2 4362 4363
4127 2 4363 4364
4128 2 4364 4365
4129 2 4365 4366
4130 2 4366 4367
4131 2 4367 4368
4132 2 4368 4369
4133 2 4369 4370
4134 2 4371 4372
4135 2 4372 4373
4136 2 4373 4374
4137 2 4374 4375
4138 2 4375 4376
4139 2 4376 4377
4140 2 4377 4378
4141 2 4378 4379
4142 2 4379 4380
4143 2 4381 4382
4144 2 4382 4383
4145 2 4383 4384
4146 2 4384 4385
4147 2 4385 4386
4148 2 4386 4387
4149 2 4387 4388
4150 2 4388 4389
4151 2 4389 4390
4152 2 4391 4392
4153 2 4392 4393
4154 2 4393 4394
4155 2 4394 4395
4156 2 4395 4396
4157 2 4396 4397
4158 2 4397 4398
4159 2 4398 4399
4160 2 4399 4400
4161 2 4401 4402
4162 2 4402 4403
4163 2 4403 4404
4164 2 4404 4405
4165 2 4405 4406
4166 2 4406 4407
4167 2 4407 4408
4168 2 4408 4409
4169 2 4409 4410
4170 2 4411 4412
4171 2 4412 4413
4172 2 4413 4414
4173 2 4414 4415
4174 2 4415 4416
4175 2 4416 4417
4176 2 4417 4418
4177 2 4418 4419
4178 2 4419 4420
4179 2 4421 4422
4180 2 4422 4423
4181 2 4423 4424
4182 2 4424 4425
4183 2 4425 4426
4184 2 4426 4427
4185 2 4427 4428
4186 2 4428 4429
4187 2 4429 4430
4188 2 4431 4432
4189 2 4432 4433
4190 2 4433 4434
4191 2 4434 4435
4192 2 4435 4436
4193 2 4436 4437
4194 2 4437 4438
4195 2 4438 4439
4196 2 4439 4440
4197 2 4441 4442
4198 2 4442 4443
4199 2 4443 4444
4200 2 4444 4445
4201 2 4445 4446
4202 2 4446 4447
4203 2 4447 4448
4204 2 4448 4449
4205 2 4449 4450
4206 2 4451 4452
4207 2 4452 4453
4208 2 4453 4454
4209 2 4454 4455
4210 2 4455 4456
4211 2 4456 4457
4212 2 4457 4458
4213 2 4458 4459
4214 2 4459 4460
4215 2 4461 4462
4216 2 4462 4463
4217 2 4463 4464
4218 2 4464 4465
4219 2 4465 4466
4220 2 4466 4467
4221 2 4467 4468
4222 2 4468 4469
4223 2 4469 4470
4224 2 4471 4472
4225 2 4472 4473
4226 2 4473 4474
4227 2 4474 4475
4228 2 4475 4476
4229 2 4476 4477
4230 2 4477 4478
4231 2 4478 4479
4232 2 4479 4480
4233 2 4481 4482
4234 2 4482 4483
4235 2 4483 4484
4236 2 4484 4485
4237 2 4485 4486
4238 2 4486 4487
4239 2 4487 4488
4240 2 4488 4489
4241 2 4489 4490
4242 2 4491 4492
4243 2 4492 4493
4244 2 4493 4494
4245 2 4494 4495
4246 2 4495 4496
4247 2 4496 4497
4248 2 4497 4498
4249 2 4498 4499
4250 2 4499 4500
4251 2 4501 4502
4252 2 4502 4503
4253 2 4503 4504
4254 2 4504 4505
4255 2 4505 4506
4256 2 4506 4507
4257 2 4507 4508
4258 2 4508 4509
4259 2 4509 4510
4260 2 4511 4512
4261 2 4512 4513
4262 2 4513 4514
4263 2 4514 4515
4264 2 4515 4516
4265 2 4516 4517
4266 2 4517 4518
4267 2 4518 4519
4268 2 4519 4520
4269 2 4521 4522
4270 2 4522 4523
4271 2 4523 4524
4272 2 4524 4525
4273 2 4525 4526
4274 2 4526 4527
4275 2 4527 4528
4276 2 4528 4529
4277 2 4529 4530
4278 2 4531 4532
4279 2 4532 4533
4280 2 4533 4534
4281 2 4534 4535
4282 2 4535 4536
4283 2 4536 4537
4284 2 4537 4538
4285 2 4538 4539
4286 2 4539 4540
4287 2 4541 4542
4288 2 4542 4543
4289 2 4543 4544
4290 2 4544 4545
4291 2 4545 4546
4292 2 4546 4547
4293 2 4547 4548
4294 2 4548 4549
4295 2 4549 4550
4296 2 4551 4552
4297 2 4552 4553
4298 2 4553 4554
4299 2 4554 4555
4300 2 4555 4556
4301 2 4556 4557
4302 2 4557 4558
4303 2 4558 4559
4304 2 4559 4560
4305 2 4561 4562
4306 2 4562 4563
4307 2 4563 4564
4308 2 4564 4565
4309 2 4565 4566
4310 2 4566 4567
4311 2 4567 4568
4312 2 4568 4569
4313 2 4569 4570
4314 2 4571 4572
4315 2 4572 4573
4316 2 4573 4574
4317 2 4574 4575
4318 2 4575 4576
4319 2 4576 4577
4320 2 4577 4578
4321 2 4578 4579
4322 2 4579 4580
4323 2 4581 4582
4324 2 4582 4583
4325 2 4583 4584
4326 2 4584 4585
4327 2 4585 4586
4328 2 4586 4587
4329 2 4587 4588
4330 2 4588 4589
4331 2 4589 4590
4332 2 4591 4592
4333 2 4592 4593
4334 2 4593 4594
4335 2 4594 4595
4336 2 4595 4596
4337 2 4596 4597
4338 2 4597 4598
4339 2 4598 4599
4340 2 4599 4600
4341 2 4601 4602
4342 2 4602 4603
4343 2 4603 4604
4344 2 4604 4605
4345 2 4605 4606
4346 2 4606 4607
4347 2 4607 4608
4348 2 4608 4609
4349 2 4609 4610
4350 2 4611 4612
4351 2 4612 4613
4352 2 4613 4614
4353 2 4614 4615
4354 2 4615 4616
4355 2 4616 4617
4356 2 4617 4618
4357 2 4618 4619
4358 2 4619 4620
4359 2 4621 4622
4360 2 4622 4623
4361 2 4623 4624
4362 2 4624 4625
4363 2 4625 4626
4364 2 4626 4627
4365 2 4627 4628
4366 2 4628 4629
4367 2 4629 4630
4368 2 4631 4632
4369 2 4632 4633
4370 2 4633 4634
4371 2 4634 4635
4372 2 4635 4636
4373 2 4636 4637
4374 2 4637 4638
4375 2 4638 4639
4376 2 4639 4640
4377 2 4641 4642
4378 2 4642 4643
4379 2 4643 4644
4380 2 4644 4645
4381 2 4645 4646
4382 2 4646 4647
4383 2 4647 4648
4384 2 4648 4649
4385 2 4649 4650
4386 2 4651 4652
4387 2 4652 4653
4388 2 4653 4654
4389 2 4654 4655
4390 2 4655 4656
4391 2 4656 4657
4392 2 4657 4658
4393 2 4658 4659
4394 2 4659 4660
4395 2 4661 4662
4396 2 4662 4663
4397 2 4663 4664
4398 2 4664 4665
4399 2 4665 4666
4400 2 4666 4667
4401 2 4667 4668
4402 2 4668 4669
4403 2 4669 4670
4404 2 4671 4672
4405 2 4672 4673
4406 2 4673 4674
4407 2 4674 4675
4408 2 4675 4676
4409 2 4676 4677
4410 2 4677 4678
4411 2 4678 4679
4412 2 4679 4680
4413 2 4681 4682
4414 2 4682 4683
4415 2 4683 4684
4416 2 4684 4685
4417 2 4685 4686
4418 2 4686 4687
4419 2 4687 4688
4420 2 4688 4689
4421 2 4689 4690
4422 2 4691 4692
4423 2 4692 4693
4424 2 4693 4694
4425 2 4694 4695
4426 2 4695 4696
4427 2 4696 4697
4428 2 4697 4698
4429 2 4698 4699
4430 2 4699 4700
4431 2 4701 4702
4432 2 4702 4703
4433 2 4703 4704
4434 2 4704 4705
4435 2 4705 4706
4436 2 4706 4707
4437 2 4707 4708
4438 2 4708 4709
4439 2 4709 4710
4440 2 4711 4712
4441 2 4712 4713
4442 2 4713 4714
4443 2 4714 4715
4444 2 4715 4716
4445 2 4716 4717
4446 2 4717 4718
4447 2 4718 4719
4448 2 4719 4720
4449 2 4721 4722
4450 2 4722 4723
4451 2 4723 4724
4452 2 4724 4725
4453 2 4725 4726
4454 2 4726 4727
4455 2 4727 4728
4456 2 4728 4729
4457 2 4729 4730
4458 2 4731 4732
4459 2 4732 4733
4460 2 4733 4734
4461 2 4734 4735
4462 2 4735 4736
4463 2 4736 4737
4464 2 4737 4738
4465 2 4738 4739
4466 2 4739 4740
4467 2 4741 4742
4468 2 4742 4743
4469 2 4743 4744
4470 2 4744 4745
4471 2 4745 4746
4472 2 4746 4747
4473 2 4747 4748
4474 2 4748 4749
4475 2 4749 4750
4476 2 4751 4752
4477 2 4752 4753
4478 2 4753 4754
4479 2 4754 4755
4480 2 4755 4756
4481 2 4756 4757
4482 2 4757 4758
4483 2 4758 4759
4484 2 4759 4760
4485 2 4761 4762
4486 2 4762 4763
4487 2 4763 4764
4488 2 4764 4765
4489 2 4765 4766
4490 2 4766 4767
4491 2 4767 4768
4492 2 4768 4769
4493 2 4769 4770
4494 2 4771 4772
4495 2 4772 4773
4496 2 4773 4774
4497 2 4774 4775
4498 2 4775 4776
4499 2 4776 4777
4500 2 4777 4778
4501 2 4778 4779
4502 2 4779 4780
4503 2 4781 4782
4504 2 4782 4783
4505 2 4783 4784
4506 2 4784 4785
4507 2 4785 4786
4508 2 4786 4787
4509 2 4787 4788
4510 2 4788 4789
4511 2 4789 4790
4512 2 4791 4792
4513 2 4792 4793
4514 2 4793 4794
4515 2 4794 4795
4516 2 4795 4796
4517 2 4796 4797
4518 2 4797 4798
4519 2 4798 4799
4520 2 4799 4800
4521 2 4801 4802
4522 2 4802 4803
4523 2 4803 4804
4524 2 4804 4805
4525 2 4805 4806
4526 2 4806 4807
4527 2 4807 4808
4528 2 4808 4809
4529 2 4809 4810
4530 2 4811 4812
4531 2 4812 4813
4532 2 4813 4814
4533 2 4814 4815
4534 2 4815 4816
4535 2 4816 4817
4536 2 4817 4818
4537 2 4818 4819
4538 2 4819 4820
4539 2 4821 4822
4540 2 4822 4823
4541 2 4823 4824
4542 2 4824 4825
4543 2 4825 4826
4544 2 4826 4827
4545 2 4827 4828
4546 2 4828 4829
4547 2 4829 4830
4548 2 4831 4832
4549 2 4832 4833
4550 2 4833 4834
4551 2 4834 4835
4552 2 4835 4836
4553 2 4836 4837
4554 2 4837 4838
4555 2 4838 4839
4556 2 4839 4840
4557 2 4841 4842
4558 2 4842 4843
4559 2 4843 4844
4560 2 4844 4845
4561 2 4845 4846
4562 2 4846 4847
4563 2 4847 4848
4564 2 4848 4849
4565 2 4849 4850
4566 2 4851 4852
4567 2 4852 4853
4568 2 4853 4854
4569 2 4854 4855
4570 2 4855 4856
4571 2 4856 4857
4572 2 4857 4858
4573 2 4858 4859
4574 2 4859 4860
4575 2 4861 4862
4576 2 4862 4863
4577 2 4863 4864
4578 2 4864 4865
4579 2 4865 4866
4580 2 4866 4867
4581 2 4867 4868
4582 2 4868 4869
4583 2 4869 4870
4584 2 4871 4872
4585 2 4872 4873
4586 2 4873 4874
4587 2 4874 4875
4588 2 4875 4876
4589 2 4876 4877
4590 2 4877 4878
4591 2 4878 4879
4592 2 4879 4880
4593 2 4881 4882
4594 2 4882 4883
4595 2 4883 4884
4596 2 4884 4885
4597 2 4885 4886
4598 2 4886 4887
4599 2 4887 4888
4600 2 4888 4889
4601 2 4889 4890
4602 2 4891 4892
4603 2 4892 4893
4604 2 4893 4894
4605 2 4894 4895
4606 2 4895 4896
4607 2 4896 4897
4608 2 4897 4898
4609 2 4898 4899
4610 2 4899 4900
4611 2 4901 4902
4612 2 4902 4903
4613 2 4903 4904
4614 2 4904 4905
4615 2 4905 4906
4616 2 4906 4907
4617 2 4907 4908
4618 2 4908 4909
4619 2 4909 4910
4620 2 4911 4912
4621 2 4912 4913
4622 2 4913 4914
4623 2 4914 4915
4624 2 4915 4916
4625 2 4916 4917
4626 2 4917 4918
4627 2 4918 4919
4628 2 4919 4920
4629 2 4921 4922
4630 2 4922 4923
4631 2 4923 4924
4632 2 4924 4925
4633 2 4925 4926
4634 2 4926 4927
4635 2 4927 4928
4636 2 4928 4929
4637 2 4929 4930
4638 2 4931 4932
4639 2 4932 4933
4640 2 4933 4934
4641 2 4934 4935
4642 2 4935 4936
4643 2 4936 4937
4644 2 4937 4938
4645 2 4938 4939
4646 2 4939 4940
4647 2 4941 4942
4648 2 4942 4943
4649 2 4943 4944
4650 2 4944 4945
4651 2 4945 4946
4652 2 4946 4947
4653 2 4947 4948
4654 2 4948 4949
4655 2 4949 4950
4656 2 4951 4952
4657 2 4952 4953
4658 2 4953 4954
4659 2 4954 4955
4660 2 4955 4956
4661 2 4956 4957
4662 2 4957 4958
4663 2 4958 4959
4664 2 4959 4960
4665 2 4961 4962
4666 2 4962 4963
4667 2 4963 4964
4668 2 4964 4965
4669 2 4965 4966
4670 2 4966 4967
4671 2 4967 4968
4672 2 4968 4969
4673 2 4969 4970
4674 2 4971 4972
4675 2 4972 4973
4676 2 4973 4974
4677 2 4974 4975
4678 2 4975 4976
4679 2 4976 4977
4680 2 4977 4978
4681 2 4978 4979
4682 2 4979 4980
4683 2 4981 4982
4684 2 4982 4983
4685 2 4983 4984
4686 2 4984 4985
4687 2 4985 4986
4688 2 4986 4987
4689 2 4987 4988
4690 2 4988 4989
4691 2 4989 4990
4692 2 4991 4992
4693 2 4992 4993
4694 2 4993 4994
4695 2 4994 4995
4696 2 4995 4996
4697 2 4996 4997
4698 2 4997 4998
4699 2 4998 4999
4700 2 4999 5000
4701 2 5001 5002
4702 2 5002 5003
4703 2 5003 5004
4704 2 5004 5005
4705 2 5005 5006
4706 2 5006 5007
4707 2 5007 5008
4708 2 5008 5009
4709 2 5009 5010
4710 2 5011 5012
4711 2 5012 5013
4712 2 5013 5014
4713 2 5014 5015
4714 2 5015 5016
4715 2 5016 5017
4716 2 5017 5018
4717 2 5018 5019
4718 2 5019 5020
4719 2 5021 5022
4720 2 5022 5023
4721 2 5023 5024
4722 2 5024 5025
4723 2 5025 5026
4724 2 5026 5027
4725 2 5027 5028
4726 2 5028 5029
4727 2 5029 5030
4728 2 5031 5032
4729 2 5032 5033
4730 2 5033 5034
4731 2 5034 5035
4732 2 5035 5036
4733 2 5036 5037
4734 2 5037 5038
4735 2 5038 5039
4736 2 5039 5040
4737 2 5041 5042
4738 2 5042 5043
4739 2 5043 5044
4740 2 5044 5045
4741 2 5045 5046
4742 2 5046 5047
4743 2 5047 5048
4744 2 5048 5049
4745 2 5049 5050
4746 2 5051 5052
4747 2 5052 5053
4748 2 5053 5054
4749 2 5054 5055
4750 2 5055 5056
4751 2 5056 5057
4752 2 5057 5058
4753 2 5058 5059
4754 2 5059 5060
4755 2 5061 5062
4756 2 5062 5063
4757 2 5063 5064
4758 2 5064 5065
4759 2 5065 5066
4760 2 5066 5067
4761 2 5067 5068
4762 2 5068 5069
4763 2 5069 5070
4764 2 5071 5072
4765 2 5072 5073
4766 2 5073 5074
4767 2 5074 5075
4768 2 5075 5076
4769 2 5076 5077
4770 2 5077 5078
4771 2 5078 5079
4772 2 5079 5080
4773 2 5081 5082
4774 2 5082 5083
4775 2 5083 5084
4776 2 5084 5085
4777 2 5085 5086
4778 2 5086 5087
4779 2 5087 5088
4780 2 5088 5089
4781 2 5089 5090
4782 2 5091 5092
4783 2 5092 5093
4784 2 5093 5094
4785 2 5094 5095
4786 2 5095 5096
4787 2 5096 5097
4788 2 5097 5098
4789 2 5098 5099
4790 2 5099 5100
4791 2 5101 5102
4792 2 5102 5103
4793 2 5103 5104
4794 2 5104 5105
4795 2 5105 5106
4796 2 5106 5107
4797 2 5107 5108
4798 2 5108 5109
4799 2 5109 5110
4800 2 5111 5112
4801 2 5112 5113
4802 2 5113 5114
4803 2 5114 5115
4804 2 5115 5116
4805 2 5116 5117
4806 2 5117 5118
4807 2 5118 5119
4808 2 5119 5120
4809 2 5121 5122
4810 2 5122 5123
4811 2 5123 5124
4812 2 5124 5125
4813 2 5125 5126
4814 2 5126 5127
4815 2 5127 5128
4816 2 5128 5129
4817 2 5129 5130
4818 2 5131 5132
4819 2 5132 5133
4820 2 5133 5134
4821 2 5134 5135
4822 2 5135 5136
4823 2 5136 5137
4824 2 5137 5138
4825 2 5138 5139
4826 2 5139 5140
4827 2 5141 5142
4828 2 5142 5143
4829 2 5143 5144
4830 2 5144 5145
4831 2 5145 5146
4832 2 5146 5147
4833 2 5147 5148
4834 2 5148 5149
4835 2 5149 5150
4836 2 5151 5152
4837 2 5152 5153
4838 2 5153 5154
4839 2 5154 5155
4840 2 5155 5156
4841 2 5156 5157
4842 2 5157 5158
4843 2 5158 5159
4844 2 5159 5160
4845 2 5161 5162
4846 2 5162 5163
4847 2 5163 5164
4848 2 5164 5165
4849 2 5165 5166
4850 2 5166 5167
4851 2 5167 5168
4852 2 5168 5169
4853 2 5169 5170
4854 2 5171 5172
4855 2 5172 5173
4856 2 5173 5174
4857 2 5174 5175
4858 2 5175 5176
4859 2 5176 5177
4860 2 5177 5178
4861 2 5178 5179
4862 2 5179 5180
4863 2 5181 5182
4864 2 5182 5183
4865 2 5183 5184
4866 2 5184 5185
4867 2 5185 5186
4868 2 5186 5187
4869 2 5187 5188
4870 2 5188 5189
4871 2 5189 5190
4872 2 5191 5192
4873 2 5192 5193
4874 2 5193 5194
4875 2 5194 5195
4876 2 5195 5196
4877 2 5196 5197
4878 2 5197 5198
4879 2 5198 5199
4880 2 5199 5200
4881 2 5201 5202
4882 2 5202 5203
4883 2 5203 5204
4884 2 5204 5205
4885 2 5205 5206
4886 2 5206 5207
4887 2 5207 5208
4888 2 5208 5209
4889 2 5209 5210
4890 2 5211 5212
4891 2 5212 5213
4892 2 5213 5214
4893 2 5214 5215
4894 2 5215 5216
4895 2 5216 5217
4896 2 5217 5218
4897 2 5218 5219
4898 2 5219 5220
4899 2 5221 5222
4900 2 5222 5223
4901 2 5223 5224
4902 2 5224 5225
4903 2 5225 5226
4904 2 5226 5227
4905 2 5227 5228
4906 2 5228 5229
4907 2 5229 5230
4908 2 5231 5232
4909 2 5232 5233
4910 2 5233 5234
4911 2 5234 5235
4912 2 5235 5236
4913 2 5236 5237
4914 2 5237 5238
4915 2 5238 5239
4916 2 5239 5240
4917 2 5241 5242
4918 2 5242 5243
4919 2 5243 5244
4920 2 5244 5245
4921 2 5245 5246
4922 2 5246 5247
4923 2 5247 5248
4924 2 5248 5249
4925 2 5249 5250
4926 2 5251 5252
4927 2 5252 5253
4928 2 5253 5254
4929 2 5254 5255
4930 2 5255 5256
4931 2 5256 5257
4932 2 5257 5258
4933 2 5258 5259
4934 2 5259 5260
4935 2 5261 5262
4936 2 5262 5263
4937 2 5263 5264
4938 2 5264 5265
4939 2 5265 5266
4940 2 5266 5267
4941 2 5267 5268
4942 2 5268 5269
4943 2 5269 5270
4944 2 5271 5272
4945 2 5272 5273
4946 2 5273 5274
4947 2 5274 5275
4948 2 5275 5276
4949 2 5276 5277
4950 2 5277 5278
4951 2 5278 5279
4952 2 5279 5280
4953 2 5281 5282
4954 2 5282 5283
4955 2 5283 5284
4956 2 5284 5285
4957 2 5285 5286
4958 2 5286 5287
4959 2 5287 5288
4960 2 5288 5289
4961 2 5289 5290
4962 2 5291 5292
4963 2 5292 5293
4964 2 5293 5294
4965 2 5294 5295
4966 2 5295 5296
4967 2 5296 5297
4968 2 5297 5298
4969 2 5298 5299
4970 2 5299 5300
